! Touchstone 2-Port S-parameter file
# GHz S RI R 50.0
! Freq(GHz) Re(S11) Im(S11) Re(S21) Im(S21) Re(S12) Im(S12) Re(S22) Im(S22)
  1.000000e-01  -5.080006e-02  -3.750038e-02   9.072578e-01  -2.533582e-01   9.072578e-01  -2.533582e-01  -5.080006e-02  -3.750038e-02
  1.099000e-01  -5.284252e-02  -4.084584e-02   8.996841e-01  -2.775788e-01   8.996841e-01  -2.775788e-01  -5.284252e-02  -4.084584e-02
  1.198000e-01  -5.505861e-02  -4.408937e-02   8.914241e-01  -3.015559e-01   8.914241e-01  -3.015559e-01  -5.505861e-02  -4.408937e-02
  1.297000e-01  -5.744321e-02  -4.722269e-02   8.824857e-01  -3.252679e-01   8.824857e-01  -3.252679e-01  -5.744321e-02  -4.722269e-02
  1.396000e-01  -5.999078e-02  -5.023776e-02   8.728777e-01  -3.486934e-01   8.728777e-01  -3.486934e-01  -5.999078e-02  -5.023776e-02
  1.495000e-01  -6.269537e-02  -5.312684e-02   8.626096e-01  -3.718111e-01   8.626096e-01  -3.718111e-01  -6.269537e-02  -5.312684e-02
  1.594000e-01  -6.555062e-02  -5.588245e-02   8.516919e-01  -3.945999e-01   8.516919e-01  -3.945999e-01  -6.555062e-02  -5.588245e-02
  1.693000e-01  -6.854978e-02  -5.849746e-02   8.401358e-01  -4.170391e-01   8.401358e-01  -4.170391e-01  -6.854978e-02  -5.849746e-02
  1.792000e-01  -7.168572e-02  -6.096508e-02   8.279534e-01  -4.391081e-01   8.279534e-01  -4.391081e-01  -7.168572e-02  -6.096508e-02
  1.891000e-01  -7.495096e-02  -6.327890e-02   8.151577e-01  -4.607870e-01   8.151577e-01  -4.607870e-01  -7.495096e-02  -6.327890e-02
  1.990000e-01  -7.833767e-02  -6.543291e-02   8.017627e-01  -4.820560e-01   8.017627e-01  -4.820560e-01  -7.833767e-02  -6.543291e-02
  2.089000e-01  -8.183768e-02  -6.742154e-02   7.877831e-01  -5.028961e-01   7.877831e-01  -5.028961e-01  -8.183768e-02  -6.742154e-02
  2.188000e-01  -8.544255e-02  -6.923966e-02   7.732346e-01  -5.232887e-01   7.732346e-01  -5.232887e-01  -8.544255e-02  -6.923966e-02
  2.287000e-01  -8.914356e-02  -7.088262e-02   7.581336e-01  -5.432157e-01   7.581336e-01  -5.432157e-01  -8.914356e-02  -7.088262e-02
  2.386000e-01  -9.293174e-02  -7.234626e-02   7.424975e-01  -5.626601e-01   7.424975e-01  -5.626601e-01  -9.293174e-02  -7.234626e-02
  2.485000e-01  -9.679792e-02  -7.362694e-02   7.263445e-01  -5.816052e-01   7.263445e-01  -5.816052e-01  -9.679792e-02  -7.362694e-02
  2.584000e-01  -1.007328e-01  -7.472157e-02   7.096934e-01  -6.000355e-01   7.096934e-01  -6.000355e-01  -1.007328e-01  -7.472157e-02
  2.683000e-01  -1.047268e-01  -7.562759e-02   6.925638e-01  -6.179361e-01   6.925638e-01  -6.179361e-01  -1.047268e-01  -7.562759e-02
  2.782000e-01  -1.087703e-01  -7.634301e-02   6.749760e-01  -6.352933e-01   6.749760e-01  -6.352933e-01  -1.087703e-01  -7.634301e-02
  2.881000e-01  -1.128538e-01  -7.686641e-02   6.569509e-01  -6.520942e-01   6.569509e-01  -6.520942e-01  -1.128538e-01  -7.686641e-02
  2.980000e-01  -1.169676e-01  -7.719695e-02   6.385099e-01  -6.683272e-01   6.385099e-01  -6.683272e-01  -1.169676e-01  -7.719695e-02
  3.079000e-01  -1.211020e-01  -7.733436e-02   6.196750e-01  -6.839816e-01   6.196750e-01  -6.839816e-01  -1.211020e-01  -7.733436e-02
  3.178000e-01  -1.252474e-01  -7.727894e-02   6.004684e-01  -6.990479e-01   6.004684e-01  -6.990479e-01  -1.252474e-01  -7.727894e-02
  3.277000e-01  -1.293945e-01  -7.703157e-02   5.809126e-01  -7.135180e-01   5.809126e-01  -7.135180e-01  -1.293945e-01  -7.703157e-02
  3.376000e-01  -1.335338e-01  -7.659368e-02   5.610304e-01  -7.273846e-01   5.610304e-01  -7.273846e-01  -1.335338e-01  -7.659368e-02
  3.475000e-01  -1.376563e-01  -7.596724e-02   5.408447e-01  -7.406421e-01   5.408447e-01  -7.406421e-01  -1.376563e-01  -7.596724e-02
  3.574000e-01  -1.417530e-01  -7.515474e-02   5.203785e-01  -7.532857e-01   5.203785e-01  -7.532857e-01  -1.417530e-01  -7.515474e-02
  3.673000e-01  -1.458155e-01  -7.415919e-02   4.996545e-01  -7.653121e-01   4.996545e-01  -7.653121e-01  -1.458155e-01  -7.415919e-02
  3.772000e-01  -1.498354e-01  -7.298403e-02   4.786954e-01  -7.767192e-01   4.786954e-01  -7.767192e-01  -1.498354e-01  -7.298403e-02
  3.871000e-01  -1.538048e-01  -7.163319e-02   4.575235e-01  -7.875059e-01   4.575235e-01  -7.875059e-01  -1.538048e-01  -7.163319e-02
  3.970000e-01  -1.577161e-01  -7.011098e-02   4.361609e-01  -7.976724e-01   4.361609e-01  -7.976724e-01  -1.577161e-01  -7.011098e-02
  4.069000e-01  -1.615622e-01  -6.842208e-02   4.146290e-01  -8.072201e-01   4.146290e-01  -8.072201e-01  -1.615622e-01  -6.842208e-02
  4.168000e-01  -1.653364e-01  -6.657151e-02   3.929489e-01  -8.161511e-01   3.929489e-01  -8.161511e-01  -1.653364e-01  -6.657151e-02
  4.267000e-01  -1.690323e-01  -6.456459e-02   3.711410e-01  -8.244690e-01   3.711410e-01  -8.244690e-01  -1.690323e-01  -6.456459e-02
  4.366000e-01  -1.726443e-01  -6.240685e-02   3.492250e-01  -8.321779e-01   3.492250e-01  -8.321779e-01  -1.726443e-01  -6.240685e-02
  4.465000e-01  -1.761669e-01  -6.010407e-02   3.272196e-01  -8.392829e-01   3.272196e-01  -8.392829e-01  -1.761669e-01  -6.010407e-02
  4.564000e-01  -1.795954e-01  -5.766216e-02   3.051432e-01  -8.457899e-01   3.051432e-01  -8.457899e-01  -1.795954e-01  -5.766216e-02
  4.663000e-01  -1.829254e-01  -5.508714e-02   2.830128e-01  -8.517054e-01   2.830128e-01  -8.517054e-01  -1.829254e-01  -5.508714e-02
  4.762000e-01  -1.861529e-01  -5.238514e-02   2.608448e-01  -8.570365e-01   2.608448e-01  -8.570365e-01  -1.861529e-01  -5.238514e-02
  4.861000e-01  -1.892747e-01  -4.956226e-02   2.386548e-01  -8.617908e-01   2.386548e-01  -8.617908e-01  -1.892747e-01  -4.956226e-02
  4.960000e-01  -1.922877e-01  -4.662463e-02   2.164570e-01  -8.659763e-01   2.164570e-01  -8.659763e-01  -1.922877e-01  -4.662463e-02
  5.059000e-01  -1.951896e-01  -4.357832e-02   1.942652e-01  -8.696012e-01   1.942652e-01  -8.696012e-01  -1.951896e-01  -4.357832e-02
  5.158000e-01  -1.979781e-01  -4.042930e-02   1.720918e-01  -8.726740e-01   1.720918e-01  -8.726740e-01  -1.979781e-01  -4.042930e-02
  5.257000e-01  -2.006517e-01  -3.718342e-02   1.499486e-01  -8.752033e-01   1.499486e-01  -8.752033e-01  -2.006517e-01  -3.718342e-02
  5.356000e-01  -2.032091e-01  -3.384636e-02   1.278464e-01  -8.771976e-01   1.278464e-01  -8.771976e-01  -2.032091e-01  -3.384636e-02
  5.455000e-01  -2.056494e-01  -3.042366e-02   1.057950e-01  -8.786654e-01   1.057950e-01  -8.786654e-01  -2.056494e-01  -3.042366e-02
  5.554000e-01  -2.079720e-01  -2.692061e-02   8.380353e-02  -8.796151e-01   8.380353e-02  -8.796151e-01  -2.079720e-01  -2.692061e-02
  5.653000e-01  -2.101766e-01  -2.334228e-02   6.188034e-02  -8.800547e-01   6.188034e-02  -8.800547e-01  -2.101766e-01  -2.334228e-02
  5.752000e-01  -2.122632e-01  -1.969351e-02   4.003303e-02  -8.799921e-01   4.003303e-02  -8.799921e-01  -2.122632e-01  -1.969351e-02
  5.851000e-01  -2.142320e-01  -1.597887e-02   1.826854e-02  -8.794347e-01   1.826854e-02  -8.794347e-01  -2.142320e-01  -1.597887e-02
  5.950000e-01  -2.160832e-01  -1.220266e-02  -3.406764e-03  -8.783896e-01  -3.406764e-03  -8.783896e-01  -2.160832e-01  -1.220266e-02
  6.049000e-01  -2.178176e-01  -8.368901e-03  -2.498703e-02  -8.768633e-01  -2.498703e-02  -8.768633e-01  -2.178176e-01  -8.368901e-03
  6.148000e-01  -2.194358e-01  -4.481352e-03  -4.646686e-02  -8.748619e-01  -4.646686e-02  -8.748619e-01  -2.194358e-01  -4.481352e-03
  6.247000e-01  -2.209385e-01  -5.434799e-04  -6.784120e-02  -8.723910e-01  -6.784120e-02  -8.723910e-01  -2.209385e-01  -5.434799e-04
  6.346000e-01  -2.223266e-01   3.441517e-03  -8.910528e-02  -8.694557e-01  -8.910528e-02  -8.694557e-01  -2.223266e-01   3.441517e-03
  6.445000e-01  -2.236010e-01   7.470709e-03  -1.102546e-01  -8.660603e-01  -1.102546e-01  -8.660603e-01  -2.236010e-01   7.470709e-03
  6.544000e-01  -2.247624e-01   1.154142e-02  -1.312846e-01  -8.622088e-01  -1.312846e-01  -8.622088e-01  -2.247624e-01   1.154142e-02
  6.643000e-01  -2.258119e-01   1.565123e-02  -1.521910e-01  -8.579047e-01  -1.521910e-01  -8.579047e-01  -2.258119e-01   1.565123e-02
  6.742000e-01  -2.267501e-01   1.979793e-02  -1.729695e-01  -8.531507e-01  -1.729695e-01  -8.531507e-01  -2.267501e-01   1.979793e-02
  6.841000e-01  -2.275778e-01   2.397954e-02  -1.936154e-01  -8.479493e-01  -1.936154e-01  -8.479493e-01  -2.275778e-01   2.397954e-02
  6.940000e-01  -2.282957e-01   2.819429e-02  -2.141242e-01  -8.423021e-01  -2.141242e-01  -8.423021e-01  -2.282957e-01   2.819429e-02
  7.039000e-01  -2.289043e-01   3.244055e-02  -2.344910e-01  -8.362108e-01  -2.344910e-01  -8.362108e-01  -2.289043e-01   3.244055e-02
  7.138000e-01  -2.294039e-01   3.671687e-02  -2.547107e-01  -8.296762e-01  -2.547107e-01  -8.296762e-01  -2.294039e-01   3.671687e-02
  7.237000e-01  -2.297949e-01   4.102195e-02  -2.747776e-01  -8.226990e-01  -2.747776e-01  -8.226990e-01  -2.297949e-01   4.102195e-02
  7.336000e-01  -2.300774e-01   4.535457e-02  -2.946861e-01  -8.152796e-01  -2.946861e-01  -8.152796e-01  -2.300774e-01   4.535457e-02
  7.435000e-01  -2.302513e-01   4.971362e-02  -3.144296e-01  -8.074180e-01  -3.144296e-01  -8.074180e-01  -2.302513e-01   4.971362e-02
  7.534000e-01  -2.303165e-01   5.409805e-02  -3.340016e-01  -7.991141e-01  -3.340016e-01  -7.991141e-01  -2.303165e-01   5.409805e-02
  7.633000e-01  -2.302726e-01   5.850686e-02  -3.533946e-01  -7.903676e-01  -3.533946e-01  -7.903676e-01  -2.302726e-01   5.850686e-02
  7.732000e-01  -2.301190e-01   6.293907e-02  -3.726010e-01  -7.811782e-01  -3.726010e-01  -7.811782e-01  -2.301190e-01   6.293907e-02
  7.831000e-01  -2.298550e-01   6.739369e-02  -3.916124e-01  -7.715457e-01  -3.916124e-01  -7.715457e-01  -2.298550e-01   6.739369e-02
  7.930000e-01  -2.294799e-01   7.186973e-02  -4.104199e-01  -7.614696e-01  -4.104199e-01  -7.614696e-01  -2.294799e-01   7.186973e-02
  8.029000e-01  -2.289925e-01   7.636614e-02  -4.290142e-01  -7.509499e-01  -4.290142e-01  -7.509499e-01  -2.289925e-01   7.636614e-02
  8.128000e-01  -2.283917e-01   8.088180e-02  -4.473852e-01  -7.399866e-01  -4.473852e-01  -7.399866e-01  -2.283917e-01   8.088180e-02
  8.227000e-01  -2.276761e-01   8.541553e-02  -4.655225e-01  -7.285800e-01  -4.655225e-01  -7.285800e-01  -2.276761e-01   8.541553e-02
  8.326000e-01  -2.268444e-01   8.996604e-02  -4.834151e-01  -7.167308e-01  -4.834151e-01  -7.167308e-01  -2.268444e-01   8.996604e-02
  8.425000e-01  -2.258949e-01   9.453192e-02  -5.010515e-01  -7.044399e-01  -5.010515e-01  -7.044399e-01  -2.258949e-01   9.453192e-02
  8.524000e-01  -2.248260e-01   9.911165e-02  -5.184197e-01  -6.917088e-01  -5.184197e-01  -6.917088e-01  -2.248260e-01   9.911165e-02
  8.623000e-01  -2.236358e-01   1.037036e-01  -5.355074e-01  -6.785395e-01  -5.355074e-01  -6.785395e-01  -2.236358e-01   1.037036e-01
  8.722000e-01  -2.223226e-01   1.083058e-01  -5.523018e-01  -6.649344e-01  -5.523018e-01  -6.649344e-01  -2.223226e-01   1.083058e-01
  8.821000e-01  -2.208844e-01   1.129164e-01  -5.687898e-01  -6.508967e-01  -5.687898e-01  -6.508967e-01  -2.208844e-01   1.129164e-01
  8.920000e-01  -2.193192e-01   1.175332e-01  -5.849579e-01  -6.364302e-01  -5.849579e-01  -6.364302e-01  -2.193192e-01   1.175332e-01
  9.019000e-01  -2.176250e-01   1.221539e-01  -6.007925e-01  -6.215391e-01  -6.007925e-01  -6.215391e-01  -2.176250e-01   1.221539e-01
  9.118000e-01  -2.157999e-01   1.267758e-01  -6.162799e-01  -6.062288e-01  -6.162799e-01  -6.062288e-01  -2.157999e-01   1.267758e-01
  9.217000e-01  -2.138417e-01   1.313964e-01  -6.314059e-01  -5.905050e-01  -6.314059e-01  -5.905050e-01  -2.138417e-01   1.313964e-01
  9.316000e-01  -2.117486e-01   1.360128e-01  -6.461567e-01  -5.743744e-01  -6.461567e-01  -5.743744e-01  -2.117486e-01   1.360128e-01
  9.415000e-01  -2.095185e-01   1.406217e-01  -6.605183e-01  -5.578445e-01  -6.605183e-01  -5.578445e-01  -2.095185e-01   1.406217e-01
  9.514000e-01  -2.071495e-01   1.452201e-01  -6.744766e-01  -5.409233e-01  -6.744766e-01  -5.409233e-01  -2.071495e-01   1.452201e-01
  9.613000e-01  -2.046399e-01   1.498044e-01  -6.880179e-01  -5.236199e-01  -6.880179e-01  -5.236199e-01  -2.046399e-01   1.498044e-01
  9.712000e-01  -2.019879e-01   1.543710e-01  -7.011287e-01  -5.059441e-01  -7.011287e-01  -5.059441e-01  -2.019879e-01   1.543710e-01
  9.811000e-01  -1.991918e-01   1.589162e-01  -7.137956e-01  -4.879062e-01  -7.137956e-01  -4.879062e-01  -1.991918e-01   1.589162e-01
  9.910000e-01  -1.962500e-01   1.634359e-01  -7.260055e-01  -4.695177e-01  -7.260055e-01  -4.695177e-01  -1.962500e-01   1.634359e-01
  1.000900e+00  -1.931613e-01   1.679261e-01  -7.377460e-01  -4.507905e-01  -7.377460e-01  -4.507905e-01  -1.931613e-01   1.679261e-01
  1.010800e+00  -1.899242e-01   1.723825e-01  -7.490047e-01  -4.317373e-01  -7.490047e-01  -4.317373e-01  -1.899242e-01   1.723825e-01
  1.020700e+00  -1.865377e-01   1.768007e-01  -7.597702e-01  -4.123714e-01  -7.597702e-01  -4.123714e-01  -1.865377e-01   1.768007e-01
  1.030600e+00  -1.830008e-01   1.811763e-01  -7.700312e-01  -3.927068e-01  -7.700312e-01  -3.927068e-01  -1.830008e-01   1.811763e-01
  1.040500e+00  -1.793126e-01   1.855046e-01  -7.797772e-01  -3.727580e-01  -7.797772e-01  -3.727580e-01  -1.793126e-01   1.855046e-01
  1.050400e+00  -1.754725e-01   1.897808e-01  -7.889985e-01  -3.525400e-01  -7.889985e-01  -3.525400e-01  -1.754725e-01   1.897808e-01
  1.060300e+00  -1.714801e-01   1.940002e-01  -7.976857e-01  -3.320685e-01  -7.976857e-01  -3.320685e-01  -1.714801e-01   1.940002e-01
  1.070200e+00  -1.673350e-01   1.981579e-01  -8.058305e-01  -3.113594e-01  -8.058305e-01  -3.113594e-01  -1.673350e-01   1.981579e-01
  1.080100e+00  -1.630371e-01   2.022489e-01  -8.134250e-01  -2.904290e-01  -8.134250e-01  -2.904290e-01  -1.630371e-01   2.022489e-01
  1.090000e+00  -1.585865e-01   2.062683e-01  -8.204622e-01  -2.692938e-01  -8.204622e-01  -2.692938e-01  -1.585865e-01   2.062683e-01
  1.099900e+00  -1.539834e-01   2.102109e-01  -8.269358e-01  -2.479709e-01  -8.269358e-01  -2.479709e-01  -1.539834e-01   2.102109e-01
  1.109800e+00  -1.492281e-01   2.140717e-01  -8.328404e-01  -2.264772e-01  -8.328404e-01  -2.264772e-01  -1.492281e-01   2.140717e-01
  1.119700e+00  -1.443214e-01   2.178455e-01  -8.381712e-01  -2.048299e-01  -8.381712e-01  -2.048299e-01  -1.443214e-01   2.178455e-01
  1.129600e+00  -1.392638e-01   2.215273e-01  -8.429243e-01  -1.830462e-01  -8.429243e-01  -1.830462e-01  -1.392638e-01   2.215273e-01
  1.139500e+00  -1.340565e-01   2.251119e-01  -8.470963e-01  -1.611434e-01  -8.470963e-01  -1.611434e-01  -1.340565e-01   2.251119e-01
  1.149400e+00  -1.287003e-01   2.285941e-01  -8.506848e-01  -1.391388e-01  -8.506848e-01  -1.391388e-01  -1.287003e-01   2.285941e-01
  1.159300e+00  -1.231967e-01   2.319689e-01  -8.536880e-01  -1.170495e-01  -8.536880e-01  -1.170495e-01  -1.231967e-01   2.319689e-01
  1.169200e+00  -1.175469e-01   2.352311e-01  -8.561047e-01  -9.489244e-02  -8.561047e-01  -9.489244e-02  -1.175469e-01   2.352311e-01
  1.179100e+00  -1.117526e-01   2.383755e-01  -8.579345e-01  -7.268447e-02  -8.579345e-01  -7.268447e-02  -1.117526e-01   2.383755e-01
  1.189000e+00  -1.058154e-01   2.413971e-01  -8.591775e-01  -5.044221e-02  -8.591775e-01  -5.044221e-02  -1.058154e-01   2.413971e-01
  1.198900e+00  -9.973715e-02   2.442908e-01  -8.598343e-01  -2.818201e-02  -8.598343e-01  -2.818201e-02  -9.973715e-02   2.442908e-01
  1.208800e+00  -9.351982e-02   2.470516e-01  -8.599062e-01  -5.919937e-03  -8.599062e-01  -5.919937e-03  -9.351982e-02   2.470516e-01
  1.218700e+00  -8.716551e-02   2.496742e-01  -8.593950e-01   1.632822e-02  -8.593950e-01   1.632822e-02  -8.716551e-02   2.496742e-01
  1.228600e+00  -8.067644e-02   2.521538e-01  -8.583028e-01   3.854700e-02  -8.583028e-01   3.854700e-02  -8.067644e-02   2.521538e-01
  1.238500e+00  -7.405496e-02   2.544853e-01  -8.566321e-01   6.072128e-02  -8.566321e-01   6.072128e-02  -7.405496e-02   2.544853e-01
  1.248400e+00  -6.730355e-02   2.566636e-01  -8.543859e-01   8.283626e-02  -8.543859e-01   8.283626e-02  -6.730355e-02   2.566636e-01
  1.258300e+00  -6.042481e-02   2.586838e-01  -8.515676e-01   1.048775e-01  -8.515676e-01   1.048775e-01  -6.042481e-02   2.586838e-01
  1.268200e+00  -5.342145e-02   2.605407e-01  -8.481805e-01   1.268309e-01  -8.481805e-01   1.268309e-01  -5.342145e-02   2.605407e-01
  1.278100e+00  -4.629633e-02   2.622294e-01  -8.442285e-01   1.486827e-01  -8.442285e-01   1.486827e-01  -4.629633e-02   2.622294e-01
  1.288000e+00  -3.905241e-02   2.637449e-01  -8.397155e-01   1.704193e-01  -8.397155e-01   1.704193e-01  -3.905241e-02   2.637449e-01
  1.297900e+00  -3.169280e-02   2.650821e-01  -8.346456e-01   1.920277e-01  -8.346456e-01   1.920277e-01  -3.169280e-02   2.650821e-01
  1.307800e+00  -2.422075e-02   2.662359e-01  -8.290231e-01   2.134950e-01  -8.290231e-01   2.134950e-01  -2.422075e-02   2.662359e-01
  1.317700e+00  -1.663965e-02   2.672013e-01  -8.228524e-01   2.348085e-01  -8.228524e-01   2.348085e-01  -1.663965e-02   2.672013e-01
  1.327600e+00  -8.953023e-03   2.679731e-01  -8.161378e-01   2.559558e-01  -8.161378e-01   2.559558e-01  -8.953023e-03   2.679731e-01
  1.337500e+00  -1.164579e-03   2.685463e-01  -8.088839e-01   2.769248e-01  -8.088839e-01   2.769248e-01  -1.164579e-03   2.685463e-01
  1.347400e+00   6.721819e-03   2.689156e-01  -8.010952e-01   2.977035e-01  -8.010952e-01   2.977035e-01   6.721819e-03   2.689156e-01
  1.357300e+00   1.470212e-02   2.690760e-01  -7.927762e-01   3.182798e-01  -7.927762e-01   3.182798e-01   1.470212e-02   2.690760e-01
  1.367200e+00   2.277209e-02   2.690221e-01  -7.839315e-01   3.386422e-01  -7.839315e-01   3.386422e-01   2.277209e-02   2.690221e-01
  1.377100e+00   3.092729e-02   2.687488e-01  -7.745656e-01   3.587788e-01  -7.745656e-01   3.587788e-01   3.092729e-02   2.687488e-01
  1.387000e+00   3.916306e-02   2.682509e-01  -7.646833e-01   3.786779e-01  -7.646833e-01   3.786779e-01   3.916306e-02   2.682509e-01
  1.396900e+00   4.747450e-02   2.675230e-01  -7.542890e-01   3.983280e-01  -7.542890e-01   3.983280e-01   4.747450e-02   2.675230e-01
  1.406800e+00   5.585648e-02   2.665599e-01  -7.433874e-01   4.177173e-01  -7.433874e-01   4.177173e-01   5.585648e-02   2.665599e-01
  1.416700e+00   6.430360e-02   2.653563e-01  -7.319834e-01   4.368340e-01  -7.319834e-01   4.368340e-01   6.430360e-02   2.653563e-01
  1.426600e+00   7.281021e-02   2.639069e-01  -7.200816e-01   4.556662e-01  -7.200816e-01   4.556662e-01   7.281021e-02   2.639069e-01
  1.436500e+00   8.137034e-02   2.622065e-01  -7.076869e-01   4.742021e-01  -7.076869e-01   4.742021e-01   8.137034e-02   2.622065e-01
  1.446400e+00   8.997775e-02   2.602500e-01  -6.948044e-01   4.924294e-01  -6.948044e-01   4.924294e-01   8.997775e-02   2.602500e-01
  1.456300e+00   9.862586e-02   2.580320e-01  -6.814392e-01   5.103359e-01  -6.814392e-01   5.103359e-01   9.862586e-02   2.580320e-01
  1.466200e+00   1.073078e-01   2.555476e-01  -6.675967e-01   5.279092e-01  -6.675967e-01   5.279092e-01   1.073078e-01   2.555476e-01
  1.476100e+00   1.160163e-01   2.527918e-01  -6.532825e-01   5.451365e-01  -6.532825e-01   5.451365e-01   1.160163e-01   2.527918e-01
  1.486000e+00   1.247438e-01   2.497596e-01  -6.385024e-01   5.620051e-01  -6.385024e-01   5.620051e-01   1.247438e-01   2.497596e-01
  1.495900e+00   1.334823e-01   2.464462e-01  -6.232625e-01   5.785019e-01  -6.232625e-01   5.785019e-01   1.334823e-01   2.464462e-01
  1.505800e+00   1.422236e-01   2.428471e-01  -6.075694e-01   5.946137e-01  -6.075694e-01   5.946137e-01   1.422236e-01   2.428471e-01
  1.515700e+00   1.509590e-01   2.389578e-01  -5.914300e-01   6.103270e-01  -5.914300e-01   6.103270e-01   1.509590e-01   2.389578e-01
  1.525600e+00   1.596794e-01   2.347741e-01  -5.748515e-01   6.256283e-01  -5.748515e-01   6.256283e-01   1.596794e-01   2.347741e-01
  1.535500e+00   1.683754e-01   2.302919e-01  -5.578418e-01   6.405036e-01  -5.578418e-01   6.405036e-01   1.683754e-01   2.302919e-01
  1.545400e+00   1.770372e-01   2.255076e-01  -5.404092e-01   6.549392e-01  -5.404092e-01   6.549392e-01   1.770372e-01   2.255076e-01
  1.555300e+00   1.856546e-01   2.204177e-01  -5.225626e-01   6.689208e-01  -5.225626e-01   6.689208e-01   1.856546e-01   2.204177e-01
  1.565200e+00   1.942172e-01   2.150190e-01  -5.043114e-01   6.824345e-01  -5.043114e-01   6.824345e-01   1.942172e-01   2.150190e-01
  1.575100e+00   2.027139e-01   2.093089e-01  -4.856657e-01   6.954660e-01  -4.856657e-01   6.954660e-01   2.027139e-01   2.093089e-01
  1.585000e+00   2.111335e-01   2.032849e-01  -4.666363e-01   7.080010e-01  -4.666363e-01   7.080010e-01   2.111335e-01   2.032849e-01
  1.594900e+00   2.194645e-01   1.969450e-01  -4.472347e-01   7.200255e-01  -4.472347e-01   7.200255e-01   2.194645e-01   1.969450e-01
  1.604800e+00   2.276949e-01   1.902878e-01  -4.274730e-01   7.315252e-01  -4.274730e-01   7.315252e-01   2.276949e-01   1.902878e-01
  1.614700e+00   2.358126e-01   1.833121e-01  -4.073642e-01   7.424862e-01  -4.073642e-01   7.424862e-01   2.358126e-01   1.833121e-01
  1.624600e+00   2.438049e-01   1.760175e-01  -3.869220e-01   7.528947e-01  -3.869220e-01   7.528947e-01   2.438049e-01   1.760175e-01
  1.634500e+00   2.516592e-01   1.684039e-01  -3.661607e-01   7.627371e-01  -3.661607e-01   7.627371e-01   2.516592e-01   1.684039e-01
  1.644400e+00   2.593625e-01   1.604720e-01  -3.450957e-01   7.720001e-01  -3.450957e-01   7.720001e-01   2.593625e-01   1.604720e-01
  1.654300e+00   2.669017e-01   1.522227e-01  -3.237430e-01   7.806708e-01  -3.237430e-01   7.806708e-01   2.669017e-01   1.522227e-01
  1.664200e+00   2.742632e-01   1.436579e-01  -3.021194e-01   7.887367e-01  -3.021194e-01   7.887367e-01   2.742632e-01   1.436579e-01
  1.674100e+00   2.814337e-01   1.347800e-01  -2.802424e-01   7.961858e-01  -2.802424e-01   7.961858e-01   2.814337e-01   1.347800e-01
  1.684000e+00   2.883996e-01   1.255919e-01  -2.581305e-01   8.030065e-01  -2.581305e-01   8.030065e-01   2.883996e-01   1.255919e-01
  1.693900e+00   2.951473e-01   1.160974e-01  -2.358027e-01   8.091880e-01  -2.358027e-01   8.091880e-01   2.951473e-01   1.160974e-01
  1.703800e+00   3.016630e-01   1.063008e-01  -2.132788e-01   8.147200e-01  -2.132788e-01   8.147200e-01   3.016630e-01   1.063008e-01
  1.713700e+00   3.079330e-01   9.620714e-02  -1.905793e-01   8.195929e-01  -1.905793e-01   8.195929e-01   3.079330e-01   9.620714e-02
  1.723600e+00   3.139439e-01   8.582215e-02  -1.677252e-01   8.237982e-01  -1.677252e-01   8.237982e-01   3.139439e-01   8.582215e-02
  1.733500e+00   3.196821e-01   7.515228e-02  -1.447385e-01   8.273277e-01  -1.447385e-01   8.273277e-01   3.196821e-01   7.515228e-02
  1.743400e+00   3.251342e-01   6.420465e-02  -1.216412e-01   8.301744e-01  -1.216412e-01   8.301744e-01   3.251342e-01   6.420465e-02
  1.753300e+00   3.302871e-01   5.298709e-02  -9.845633e-02   8.323322e-01  -9.845633e-02   8.323322e-01   3.302871e-01   5.298709e-02
  1.763200e+00   3.351279e-01   4.150813e-02  -7.520704e-02   8.337960e-01  -7.520704e-02   8.337960e-01   3.351279e-01   4.150813e-02
  1.773100e+00   3.396438e-01   2.977694e-02  -5.191702e-02   8.345614e-01  -5.191702e-02   8.345614e-01   3.396438e-01   2.977694e-02
  1.783000e+00   3.438227e-01   1.780340e-02  -2.861028e-02   8.346255e-01  -2.861028e-02   8.346255e-01   3.438227e-01   1.780340e-02
  1.792900e+00   3.476524e-01   5.598025e-03  -5.311076e-03   8.339860e-01  -5.311076e-03   8.339860e-01   3.476524e-01   5.598025e-03
  1.802800e+00   3.511215e-01  -6.828040e-03   1.795609e-02   8.326419e-01   1.795609e-02   8.326419e-01   3.511215e-01  -6.828040e-03
  1.812700e+00   3.542187e-01  -1.946303e-02   4.116660e-02   8.305933e-01   4.116660e-02   8.305933e-01   3.542187e-01  -1.946303e-02
  1.822600e+00   3.569334e-01  -3.229459e-02   6.429574e-02   8.278414e-01   6.429574e-02   8.278414e-01   3.569334e-01  -3.229459e-02
  1.832500e+00   3.592555e-01  -4.530982e-02   8.731880e-02   8.243884e-01   8.731880e-02   8.243884e-01   3.592555e-01  -4.530982e-02
  1.842400e+00   3.611753e-01  -5.849527e-02   1.102111e-01   8.202378e-01   1.102111e-01   8.202378e-01   3.611753e-01  -5.849527e-02
  1.852300e+00   3.626838e-01  -7.183700e-02   1.329482e-01   8.153939e-01   1.329482e-01   8.153939e-01   3.626838e-01  -7.183700e-02
  1.862200e+00   3.637725e-01  -8.532060e-02   1.555057e-01   8.098625e-01   1.555057e-01   8.098625e-01   3.637725e-01  -8.532060e-02
  1.872100e+00   3.644337e-01  -9.893122e-02   1.778595e-01   8.036501e-01   1.778595e-01   8.036501e-01   3.644337e-01  -9.893122e-02
  1.882000e+00   3.646601e-01  -1.126536e-01   1.999860e-01   7.967645e-01   1.999860e-01   7.967645e-01   3.646601e-01  -1.126536e-01
  1.891900e+00   3.644454e-01  -1.264722e-01   2.218616e-01   7.892143e-01   2.218616e-01   7.892143e-01   3.644454e-01  -1.264722e-01
  1.901800e+00   3.637835e-01  -1.403711e-01   2.434636e-01   7.810094e-01   2.434636e-01   7.810094e-01   3.637835e-01  -1.403711e-01
  1.911700e+00   3.626696e-01  -1.543341e-01   2.647694e-01   7.721604e-01   2.647694e-01   7.721604e-01   3.626696e-01  -1.543341e-01
  1.921600e+00   3.610991e-01  -1.683447e-01   2.857571e-01   7.626789e-01   2.857571e-01   7.626789e-01   3.610991e-01  -1.683447e-01
  1.931500e+00   3.590684e-01  -1.823864e-01   3.064055e-01   7.525775e-01   3.064055e-01   7.525775e-01   3.590684e-01  -1.823864e-01
  1.941400e+00   3.565745e-01  -1.964423e-01   3.266939e-01   7.418694e-01   3.266939e-01   7.418694e-01   3.565745e-01  -1.964423e-01
  1.951300e+00   3.536153e-01  -2.104956e-01   3.466022e-01   7.305690e-01   3.466022e-01   7.305690e-01   3.536153e-01  -2.104956e-01
  1.961200e+00   3.501892e-01  -2.245292e-01   3.661111e-01   7.186909e-01   3.661111e-01   7.186909e-01   3.501892e-01  -2.245292e-01
  1.971100e+00   3.462955e-01  -2.385261e-01   3.852022e-01   7.062510e-01   3.852022e-01   7.062510e-01   3.462955e-01  -2.385261e-01
  1.981000e+00   3.419342e-01  -2.524693e-01   4.038575e-01   6.932654e-01   4.038575e-01   6.932654e-01   3.419342e-01  -2.524693e-01
  1.990900e+00   3.371059e-01  -2.663418e-01   4.220600e-01   6.797509e-01   4.220600e-01   6.797509e-01   3.371059e-01  -2.663418e-01
  2.000800e+00   3.318120e-01  -2.801267e-01   4.397936e-01   6.657252e-01   4.397936e-01   6.657252e-01   3.318120e-01  -2.801267e-01
  2.010700e+00   3.260547e-01  -2.938071e-01   4.570427e-01   6.512059e-01   4.570427e-01   6.512059e-01   3.260547e-01  -2.938071e-01
  2.020600e+00   3.198366e-01  -3.073664e-01   4.737929e-01   6.362116e-01   4.737929e-01   6.362116e-01   3.198366e-01  -3.073664e-01
  2.030500e+00   3.131612e-01  -3.207880e-01   4.900303e-01   6.207610e-01   4.900303e-01   6.207610e-01   3.131612e-01  -3.207880e-01
  2.040400e+00   3.060327e-01  -3.340556e-01   5.057421e-01   6.048734e-01   5.057421e-01   6.048734e-01   3.060327e-01  -3.340556e-01
  2.050300e+00   2.984556e-01  -3.471532e-01   5.209160e-01   5.885681e-01   5.209160e-01   5.885681e-01   2.984556e-01  -3.471532e-01
  2.060200e+00   2.904355e-01  -3.600649e-01   5.355410e-01   5.718649e-01   5.355410e-01   5.718649e-01   2.904355e-01  -3.600649e-01
  2.070100e+00   2.819782e-01  -3.727751e-01   5.496065e-01   5.547838e-01   5.496065e-01   5.547838e-01   2.819782e-01  -3.727751e-01
  2.080000e+00   2.730902e-01  -3.852686e-01   5.631029e-01   5.373450e-01   5.631029e-01   5.373450e-01   2.730902e-01  -3.852686e-01
  2.089900e+00   2.637786e-01  -3.975305e-01   5.760214e-01   5.195688e-01   5.760214e-01   5.195688e-01   2.637786e-01  -3.975305e-01
  2.099800e+00   2.540511e-01  -4.095461e-01   5.883540e-01   5.014757e-01   5.883540e-01   5.014757e-01   2.540511e-01  -4.095461e-01
  2.109700e+00   2.439156e-01  -4.213013e-01   6.000935e-01   4.830861e-01   6.000935e-01   4.830861e-01   2.439156e-01  -4.213013e-01
  2.119600e+00   2.333809e-01  -4.327823e-01   6.112334e-01   4.644206e-01   6.112334e-01   4.644206e-01   2.333809e-01  -4.327823e-01
  2.129500e+00   2.224560e-01  -4.439755e-01   6.217680e-01   4.455000e-01   6.217680e-01   4.455000e-01   2.224560e-01  -4.439755e-01
  2.139400e+00   2.111503e-01  -4.548679e-01   6.316924e-01   4.263447e-01   6.316924e-01   4.263447e-01   2.111503e-01  -4.548679e-01
  2.149300e+00   1.994738e-01  -4.654470e-01   6.410023e-01   4.069753e-01   6.410023e-01   4.069753e-01   1.994738e-01  -4.654470e-01
  2.159200e+00   1.874368e-01  -4.757005e-01   6.496942e-01   3.874124e-01   6.496942e-01   3.874124e-01   1.874368e-01  -4.757005e-01
  2.169100e+00   1.750500e-01  -4.856167e-01   6.577652e-01   3.676764e-01   6.577652e-01   3.676764e-01   1.750500e-01  -4.856167e-01
  2.179000e+00   1.623244e-01  -4.951843e-01   6.652132e-01   3.477878e-01   6.652132e-01   3.477878e-01   1.623244e-01  -4.951843e-01
  2.188900e+00   1.492714e-01  -5.043925e-01   6.720366e-01   3.277667e-01   6.720366e-01   3.277667e-01   1.492714e-01  -5.043925e-01
  2.198800e+00   1.359025e-01  -5.132309e-01   6.782346e-01   3.076332e-01   6.782346e-01   3.076332e-01   1.359025e-01  -5.132309e-01
  2.208700e+00   1.222296e-01  -5.216896e-01   6.838069e-01   2.874075e-01   6.838069e-01   2.874075e-01   1.222296e-01  -5.216896e-01
  2.218600e+00   1.082650e-01  -5.297591e-01   6.887538e-01   2.671094e-01   6.887538e-01   2.671094e-01   1.082650e-01  -5.297591e-01
  2.228500e+00   9.402110e-02  -5.374304e-01   6.930764e-01   2.467585e-01   6.930764e-01   2.467585e-01   9.402110e-02  -5.374304e-01
  2.238400e+00   7.951040e-02  -5.446951e-01   6.967762e-01   2.263743e-01   6.967762e-01   2.263743e-01   7.951040e-02  -5.446951e-01
  2.248300e+00   6.474573e-02  -5.515451e-01   6.998553e-01   2.059763e-01   6.998553e-01   2.059763e-01   6.474573e-02  -5.515451e-01
  2.258200e+00   4.974007e-02  -5.579728e-01   7.023163e-01   1.855835e-01   7.023163e-01   1.855835e-01   4.974007e-02  -5.579728e-01
  2.268100e+00   3.450653e-02  -5.639711e-01   7.041626e-01   1.652149e-01   7.041626e-01   1.652149e-01   3.450653e-02  -5.639711e-01
  2.278000e+00   1.905833e-02  -5.695333e-01   7.053977e-01   1.448892e-01   7.053977e-01   1.448892e-01   1.905833e-02  -5.695333e-01
  2.287900e+00   3.408842e-03  -5.746533e-01   7.060260e-01   1.246249e-01   7.060260e-01   1.246249e-01   3.408842e-03  -5.746533e-01
  2.297800e+00  -1.242849e-02  -5.793253e-01   7.060524e-01   1.044403e-01   7.060524e-01   1.044403e-01  -1.242849e-02  -5.793253e-01
  2.307700e+00  -2.844015e-02  -5.835441e-01   7.054821e-01   8.435351e-02   7.054821e-01   8.435351e-02  -2.844015e-02  -5.835441e-01
  2.317600e+00  -4.461255e-02  -5.873047e-01   7.043209e-01   6.438224e-02   7.043209e-01   6.438224e-02  -4.461255e-02  -5.873047e-01
  2.327500e+00  -6.093205e-02  -5.906027e-01   7.025752e-01   4.454408e-02   7.025752e-01   4.454408e-02  -6.093205e-02  -5.906027e-01
  2.337400e+00  -7.738499e-02  -5.934341e-01   7.002517e-01   2.485628e-02   7.002517e-01   2.485628e-02  -7.738499e-02  -5.934341e-01
  2.347300e+00  -9.395770e-02  -5.957955e-01   6.973577e-01   5.335876e-03   6.973577e-01   5.335876e-03  -9.395770e-02  -5.957955e-01
  2.357200e+00  -1.106365e-01  -5.976835e-01   6.939009e-01  -1.400042e-02   6.939009e-01  -1.400042e-02  -1.106365e-01  -5.976835e-01
  2.367100e+00  -1.274077e-01  -5.990954e-01   6.898896e-01  -3.313619e-02   6.898896e-01  -3.313619e-02  -1.274077e-01  -5.990954e-01
  2.377000e+00  -1.442576e-01  -6.000289e-01   6.853325e-01  -5.205529e-02   6.853325e-01  -5.205529e-02  -1.442576e-01  -6.000289e-01
  2.386900e+00  -1.611726e-01  -6.004820e-01   6.802386e-01  -7.074191e-02   6.802386e-01  -7.074191e-02  -1.611726e-01  -6.004820e-01
  2.396800e+00  -1.781391e-01  -6.004530e-01   6.746176e-01  -8.918057e-02   6.746176e-01  -8.918057e-02  -1.781391e-01  -6.004530e-01
  2.406700e+00  -1.951436e-01  -5.999408e-01   6.684794e-01  -1.073561e-01   6.684794e-01  -1.073561e-01  -1.951436e-01  -5.999408e-01
  2.416600e+00  -2.121726e-01  -5.989443e-01   6.618344e-01  -1.252538e-01   6.618344e-01  -1.252538e-01  -2.121726e-01  -5.989443e-01
  2.426500e+00  -2.292126e-01  -5.974632e-01   6.546937e-01  -1.428591e-01   6.546937e-01  -1.428591e-01  -2.292126e-01  -5.974632e-01
  2.436400e+00  -2.462503e-01  -5.954971e-01   6.470683e-01  -1.601580e-01   6.470683e-01  -1.601580e-01  -2.462503e-01  -5.954971e-01
  2.446300e+00  -2.632724e-01  -5.930463e-01   6.389700e-01  -1.771368e-01   6.389700e-01  -1.771368e-01  -2.632724e-01  -5.930463e-01
  2.456200e+00  -2.802656e-01  -5.901112e-01   6.304108e-01  -1.937823e-01   6.304108e-01  -1.937823e-01  -2.802656e-01  -5.901112e-01
  2.466100e+00  -2.972170e-01  -5.866925e-01   6.214033e-01  -2.100815e-01   6.214033e-01  -2.100815e-01  -2.972170e-01  -5.866925e-01
  2.476000e+00  -3.141134e-01  -5.827913e-01   6.119602e-01  -2.260221e-01   6.119602e-01  -2.260221e-01  -3.141134e-01  -5.827913e-01
  2.485900e+00  -3.309418e-01  -5.784090e-01   6.020946e-01  -2.415920e-01   6.020946e-01  -2.415920e-01  -3.309418e-01  -5.784090e-01
  2.495800e+00  -3.476895e-01  -5.735473e-01   5.918202e-01  -2.567798e-01   5.918202e-01  -2.567798e-01  -3.476895e-01  -5.735473e-01
  2.505700e+00  -3.643437e-01  -5.682080e-01   5.811508e-01  -2.715742e-01   5.811508e-01  -2.715742e-01  -3.643437e-01  -5.682080e-01
  2.515600e+00  -3.808918e-01  -5.623935e-01   5.701006e-01  -2.859647e-01   5.701006e-01  -2.859647e-01  -3.808918e-01  -5.623935e-01
  2.525500e+00  -3.973210e-01  -5.561061e-01   5.586840e-01  -2.999411e-01   5.586840e-01  -2.999411e-01  -3.973210e-01  -5.561061e-01
  2.535400e+00  -4.136191e-01  -5.493487e-01   5.469158e-01  -3.134939e-01   5.469158e-01  -3.134939e-01  -4.136191e-01  -5.493487e-01
  2.545300e+00  -4.297736e-01  -5.421243e-01   5.348110e-01  -3.266139e-01   5.348110e-01  -3.266139e-01  -4.297736e-01  -5.421243e-01
  2.555200e+00  -4.457724e-01  -5.344360e-01   5.223850e-01  -3.392924e-01   5.223850e-01  -3.392924e-01  -4.457724e-01  -5.344360e-01
  2.565100e+00  -4.616031e-01  -5.262875e-01   5.096533e-01  -3.515215e-01   5.096533e-01  -3.515215e-01  -4.616031e-01  -5.262875e-01
  2.575000e+00  -4.772538e-01  -5.176824e-01   4.966316e-01  -3.632934e-01   4.966316e-01  -3.632934e-01  -4.772538e-01  -5.176824e-01
  2.584900e+00  -4.927125e-01  -5.086248e-01   4.833359e-01  -3.746014e-01   4.833359e-01  -3.746014e-01  -4.927125e-01  -5.086248e-01
  2.594800e+00  -5.079673e-01  -4.991189e-01   4.697824e-01  -3.854387e-01   4.697824e-01  -3.854387e-01  -5.079673e-01  -4.991189e-01
  2.604700e+00  -5.230065e-01  -4.891691e-01   4.559872e-01  -3.957997e-01   4.559872e-01  -3.957997e-01  -5.230065e-01  -4.891691e-01
  2.614600e+00  -5.378185e-01  -4.787801e-01   4.419668e-01  -4.056789e-01   4.419668e-01  -4.056789e-01  -5.378185e-01  -4.787801e-01
  2.624500e+00  -5.523916e-01  -4.679569e-01   4.277378e-01  -4.150715e-01   4.277378e-01  -4.150715e-01  -5.523916e-01  -4.679569e-01
  2.634400e+00  -5.667144e-01  -4.567046e-01   4.133169e-01  -4.239733e-01   4.133169e-01  -4.239733e-01  -5.667144e-01  -4.567046e-01
  2.644300e+00  -5.807755e-01  -4.450286e-01   3.987208e-01  -4.323807e-01   3.987208e-01  -4.323807e-01  -5.807755e-01  -4.450286e-01
  2.654200e+00  -5.945637e-01  -4.329345e-01   3.839662e-01  -4.402907e-01   3.839662e-01  -4.402907e-01  -5.945637e-01  -4.329345e-01
  2.664100e+00  -6.080679e-01  -4.204281e-01   3.690700e-01  -4.477007e-01   3.690700e-01  -4.477007e-01  -6.080679e-01  -4.204281e-01
  2.674000e+00  -6.212768e-01  -4.075155e-01   3.540491e-01  -4.546088e-01   3.540491e-01  -4.546088e-01  -6.212768e-01  -4.075155e-01
  2.683900e+00  -6.341797e-01  -3.942030e-01   3.389202e-01  -4.610137e-01   3.389202e-01  -4.610137e-01  -6.341797e-01  -3.942030e-01
  2.693800e+00  -6.467655e-01  -3.804969e-01   3.237002e-01  -4.669146e-01   3.237002e-01  -4.669146e-01  -6.467655e-01  -3.804969e-01
  2.703700e+00  -6.590236e-01  -3.664042e-01   3.084059e-01  -4.723113e-01   3.084059e-01  -4.723113e-01  -6.590236e-01  -3.664042e-01
  2.713600e+00  -6.709433e-01  -3.519317e-01   2.930540e-01  -4.772041e-01   2.930540e-01  -4.772041e-01  -6.709433e-01  -3.519317e-01
  2.723500e+00  -6.825140e-01  -3.370865e-01   2.776610e-01  -4.815940e-01   2.776610e-01  -4.815940e-01  -6.825140e-01  -3.370865e-01
  2.733400e+00  -6.937253e-01  -3.218762e-01   2.622435e-01  -4.854823e-01   2.622435e-01  -4.854823e-01  -6.937253e-01  -3.218762e-01
  2.743300e+00  -7.045669e-01  -3.063084e-01   2.468179e-01  -4.888712e-01   2.468179e-01  -4.888712e-01  -7.045669e-01  -3.063084e-01
  2.753200e+00  -7.150284e-01  -2.903908e-01   2.314004e-01  -4.917632e-01   2.314004e-01  -4.917632e-01  -7.150284e-01  -2.903908e-01
  2.763100e+00  -7.250999e-01  -2.741317e-01   2.160071e-01  -4.941614e-01   2.160071e-01  -4.941614e-01  -7.250999e-01  -2.741317e-01
  2.773000e+00  -7.347713e-01  -2.575392e-01   2.006538e-01  -4.960692e-01   2.006538e-01  -4.960692e-01  -7.347713e-01  -2.575392e-01
  2.782900e+00  -7.440327e-01  -2.406221e-01   1.853563e-01  -4.974910e-01   1.853563e-01  -4.974910e-01  -7.440327e-01  -2.406221e-01
  2.792800e+00  -7.528743e-01  -2.233890e-01   1.701300e-01  -4.984312e-01   1.701300e-01  -4.984312e-01  -7.528743e-01  -2.233890e-01
  2.802700e+00  -7.612866e-01  -2.058489e-01   1.549902e-01  -4.988949e-01   1.549902e-01  -4.988949e-01  -7.612866e-01  -2.058489e-01
  2.812600e+00  -7.692599e-01  -1.880112e-01   1.399518e-01  -4.988878e-01   1.399518e-01  -4.988878e-01  -7.692599e-01  -1.880112e-01
  2.822500e+00  -7.767849e-01  -1.698853e-01   1.250296e-01  -4.984159e-01   1.250296e-01  -4.984159e-01  -7.767849e-01  -1.698853e-01
  2.832400e+00  -7.838524e-01  -1.514810e-01   1.102380e-01  -4.974856e-01   1.102380e-01  -4.974856e-01  -7.838524e-01  -1.514810e-01
  2.842300e+00  -7.904532e-01  -1.328081e-01   9.559121e-02  -4.961039e-01   9.559121e-02  -4.961039e-01  -7.904532e-01  -1.328081e-01
  2.852200e+00  -7.965783e-01  -1.138769e-01   8.110304e-02  -4.942781e-01   8.110304e-02  -4.942781e-01  -7.965783e-01  -1.138769e-01
  2.862100e+00  -8.022188e-01  -9.469792e-02   6.678706e-02  -4.920159e-01   6.678706e-02  -4.920159e-01  -8.022188e-01  -9.469792e-02
  2.872000e+00  -8.073662e-01  -7.528170e-02   5.265648e-02  -4.893256e-01   5.265648e-02  -4.893256e-01  -8.073662e-01  -7.528170e-02
  2.881900e+00  -8.120117e-01  -5.563923e-02   3.872417e-02  -4.862157e-01   3.872417e-02  -4.862157e-01  -8.120117e-01  -5.563923e-02
  2.891800e+00  -8.161470e-01  -3.578165e-02   2.500268e-02  -4.826950e-01   2.500268e-02  -4.826950e-01  -8.161470e-01  -3.578165e-02
  2.901700e+00  -8.197639e-01  -1.572039e-02   1.150418e-02  -4.787728e-01   1.150418e-02  -4.787728e-01  -8.197639e-01  -1.572039e-02
  2.911600e+00  -8.228543e-01   4.532893e-03  -1.759503e-03  -4.744587e-01  -1.759503e-03  -4.744587e-01  -8.228543e-01   4.532893e-03
  2.921500e+00  -8.254101e-01   2.496630e-02  -1.477691e-02  -4.697626e-01  -1.477691e-02  -4.697626e-01  -8.254101e-01   2.496630e-02
  2.931400e+00  -8.274237e-01   4.556767e-02  -2.753695e-02  -4.646947e-01  -2.753695e-02  -4.646947e-01  -8.274237e-01   4.556767e-02
  2.941300e+00  -8.288874e-01   6.632459e-02  -4.002891e-02  -4.592655e-01  -4.002891e-02  -4.592655e-01  -8.288874e-01   6.632459e-02
  2.951200e+00  -8.297937e-01   8.722439e-02  -5.224248e-02  -4.534857e-01  -5.224248e-02  -4.534857e-01  -8.297937e-01   8.722439e-02
  2.961100e+00  -8.301355e-01   1.082541e-01  -6.416771e-02  -4.473665e-01  -6.416771e-02  -4.473665e-01  -8.301355e-01   1.082541e-01
  2.971000e+00  -8.299056e-01   1.294006e-01  -7.579504e-02  -4.409190e-01  -7.579504e-02  -4.409190e-01  -8.299056e-01   1.294006e-01
  2.980900e+00  -8.290971e-01   1.506504e-01  -8.711529e-02  -4.341548e-01  -8.711529e-02  -4.341548e-01  -8.290971e-01   1.506504e-01
  2.990800e+00  -8.277032e-01   1.719898e-01  -9.811970e-02  -4.270856e-01  -9.811970e-02  -4.270856e-01  -8.277032e-01   1.719898e-01
  3.000700e+00  -8.257175e-01   1.934047e-01  -1.087999e-01  -4.197235e-01  -1.087999e-01  -4.197235e-01  -8.257175e-01   1.934047e-01
  3.010600e+00  -8.231336e-01   2.148809e-01  -1.191478e-01  -4.120805e-01  -1.191478e-01  -4.120805e-01  -8.231336e-01   2.148809e-01
  3.020500e+00  -8.199454e-01   2.364038e-01  -1.291559e-01  -4.041689e-01  -1.291559e-01  -4.041689e-01  -8.199454e-01   2.364038e-01
  3.030400e+00  -8.161469e-01   2.579585e-01  -1.388169e-01  -3.960013e-01  -1.388169e-01  -3.960013e-01  -8.161469e-01   2.579585e-01
  3.040300e+00  -8.117324e-01   2.795298e-01  -1.481241e-01  -3.875903e-01  -1.481241e-01  -3.875903e-01  -8.117324e-01   2.795298e-01
  3.050200e+00  -8.066964e-01   3.011022e-01  -1.570708e-01  -3.789488e-01  -1.570708e-01  -3.789488e-01  -8.066964e-01   3.011022e-01
  3.060100e+00  -8.010336e-01   3.226601e-01  -1.656512e-01  -3.700897e-01  -1.656512e-01  -3.700897e-01  -8.010336e-01   3.226601e-01
  3.070000e+00  -7.947390e-01   3.441871e-01  -1.738595e-01  -3.610261e-01  -1.738595e-01  -3.610261e-01  -7.947390e-01   3.441871e-01
  3.079900e+00  -7.878078e-01   3.656670e-01  -1.816905e-01  -3.517713e-01  -1.816905e-01  -3.517713e-01  -7.878078e-01   3.656670e-01
  3.089800e+00  -7.802354e-01   3.870828e-01  -1.891391e-01  -3.423386e-01  -1.891391e-01  -3.423386e-01  -7.802354e-01   3.870828e-01
  3.099700e+00  -7.720176e-01   4.084174e-01  -1.962009e-01  -3.327415e-01  -1.962009e-01  -3.327415e-01  -7.720176e-01   4.084174e-01
  3.109600e+00  -7.631504e-01   4.296534e-01  -2.028717e-01  -3.229937e-01  -2.028717e-01  -3.229937e-01  -7.631504e-01   4.296534e-01
  3.119500e+00  -7.536301e-01   4.507727e-01  -2.091477e-01  -3.131088e-01  -2.091477e-01  -3.131088e-01  -7.536301e-01   4.507727e-01
  3.129400e+00  -7.434533e-01   4.717573e-01  -2.150256e-01  -3.031006e-01  -2.150256e-01  -3.031006e-01  -7.434533e-01   4.717573e-01
  3.139300e+00  -7.326169e-01   4.925883e-01  -2.205022e-01  -2.929830e-01  -2.205022e-01  -2.929830e-01  -7.326169e-01   4.925883e-01
  3.149200e+00  -7.211184e-01   5.132468e-01  -2.255749e-01  -2.827701e-01  -2.255749e-01  -2.827701e-01  -7.211184e-01   5.132468e-01
  3.159100e+00  -7.089552e-01   5.337132e-01  -2.302414e-01  -2.724759e-01  -2.302414e-01  -2.724759e-01  -7.089552e-01   5.337132e-01
  3.169000e+00  -6.961256e-01   5.539677e-01  -2.344999e-01  -2.621148e-01  -2.344999e-01  -2.621148e-01  -6.961256e-01   5.539677e-01
  3.178900e+00  -6.826279e-01   5.739898e-01  -2.383488e-01  -2.517010e-01  -2.383488e-01  -2.517010e-01  -6.826279e-01   5.739898e-01
  3.188800e+00  -6.684611e-01   5.937590e-01  -2.417869e-01  -2.412488e-01  -2.417869e-01  -2.412488e-01  -6.684611e-01   5.937590e-01
  3.198700e+00  -6.536246e-01   6.132538e-01  -2.448135e-01  -2.307729e-01  -2.448135e-01  -2.307729e-01  -6.536246e-01   6.132538e-01
  3.208600e+00  -6.381183e-01   6.324526e-01  -2.474284e-01  -2.202878e-01  -2.474284e-01  -2.202878e-01  -6.381183e-01   6.324526e-01
  3.218500e+00  -6.219426e-01   6.513334e-01  -2.496314e-01  -2.098082e-01  -2.496314e-01  -2.098082e-01  -6.219426e-01   6.513334e-01
  3.228400e+00  -6.050986e-01   6.698733e-01  -2.514232e-01  -1.993488e-01  -2.514232e-01  -1.993488e-01  -6.050986e-01   6.698733e-01
  3.238300e+00  -5.875879e-01   6.880494e-01  -2.528046e-01  -1.889247e-01  -2.528046e-01  -1.889247e-01  -5.875879e-01   6.880494e-01
  3.248200e+00  -5.694128e-01   7.058381e-01  -2.537769e-01  -1.785507e-01  -2.537769e-01  -1.785507e-01  -5.694128e-01   7.058381e-01
  3.258100e+00  -5.505762e-01   7.232152e-01  -2.543419e-01  -1.682420e-01  -2.543419e-01  -1.682420e-01  -5.505762e-01   7.232152e-01
  3.268000e+00  -5.310818e-01   7.401564e-01  -2.545019e-01  -1.580136e-01  -2.545019e-01  -1.580136e-01  -5.310818e-01   7.401564e-01
  3.277900e+00  -5.109343e-01   7.566366e-01  -2.542595e-01  -1.478809e-01  -2.542595e-01  -1.478809e-01  -5.109343e-01   7.566366e-01
  3.287800e+00  -4.901390e-01   7.726304e-01  -2.536181e-01  -1.378592e-01  -2.536181e-01  -1.378592e-01  -4.901390e-01   7.726304e-01
  3.297700e+00  -4.687020e-01   7.881119e-01  -2.525813e-01  -1.279638e-01  -2.525813e-01  -1.279638e-01  -4.687020e-01   7.881119e-01
  3.307600e+00  -4.466307e-01   8.030548e-01  -2.511533e-01  -1.182102e-01  -2.511533e-01  -1.182102e-01  -4.466307e-01   8.030548e-01
  3.317500e+00  -4.239332e-01   8.174324e-01  -2.493390e-01  -1.086140e-01  -2.493390e-01  -1.086140e-01  -4.239332e-01   8.174324e-01
  3.327400e+00  -4.006188e-01   8.312175e-01  -2.471438e-01  -9.919069e-02  -2.471438e-01  -9.919069e-02  -4.006188e-01   8.312175e-01
  3.337300e+00  -3.766979e-01   8.443828e-01  -2.445736e-01  -8.995593e-02  -2.445736e-01  -8.995593e-02  -3.766979e-01   8.443828e-01
  3.347200e+00  -3.521820e-01   8.569004e-01  -2.416351e-01  -8.092531e-02  -2.416351e-01  -8.092531e-02  -3.521820e-01   8.569004e-01
  3.357100e+00  -3.270840e-01   8.687423e-01  -2.383354e-01  -7.211445e-02  -2.383354e-01  -7.211445e-02  -3.270840e-01   8.687423e-01
  3.367000e+00  -3.014179e-01   8.798801e-01  -2.346826e-01  -6.353896e-02  -2.346826e-01  -6.353896e-02  -3.014179e-01   8.798801e-01
  3.376900e+00  -2.751994e-01   8.902855e-01  -2.306852e-01  -5.521438e-02  -2.306852e-01  -5.521438e-02  -2.751994e-01   8.902855e-01
  3.386800e+00  -2.484452e-01   8.999298e-01  -2.263525e-01  -4.715618e-02  -2.263525e-01  -4.715618e-02  -2.484452e-01   8.999298e-01
  3.396700e+00  -2.211737e-01   9.087843e-01  -2.216946e-01  -3.937973e-02  -2.216946e-01  -3.937973e-02  -2.211737e-01   9.087843e-01
  3.406600e+00  -1.934050e-01   9.168204e-01  -2.167224e-01  -3.190027e-02  -2.167224e-01  -3.190027e-02  -1.934050e-01   9.168204e-01
  3.416500e+00  -1.651606e-01   9.240095e-01  -2.114475e-01  -2.473286e-02  -2.114475e-01  -2.473286e-02  -1.651606e-01   9.240095e-01
  3.426400e+00  -1.364636e-01   9.303233e-01  -2.058822e-01  -1.789232e-02  -2.058822e-01  -1.789232e-02  -1.364636e-01   9.303233e-01
  3.436300e+00  -1.073390e-01   9.357335e-01  -2.000399e-01  -1.139325e-02  -2.000399e-01  -1.139325e-02  -1.073390e-01   9.357335e-01
  3.446200e+00  -7.781337e-02   9.402124e-01  -1.939347e-01  -5.249901e-03  -1.939347e-01  -5.249901e-03  -7.781337e-02   9.402124e-01
  3.456100e+00  -4.791523e-02   9.437327e-01  -1.875816e-01   5.238122e-04  -1.875816e-01   5.238122e-04  -4.791523e-02   9.437327e-01
  3.466000e+00  -1.767482e-02   9.462677e-01  -1.809964e-01   5.914402e-03  -1.809964e-01   5.914402e-03  -1.767482e-02   9.462677e-01
  3.475900e+00   1.287572e-02   9.477913e-01  -1.741959e-01   1.090886e-02  -1.741959e-01   1.090886e-02   1.287572e-02   9.477913e-01
  3.485800e+00   4.370239e-02   9.482784e-01  -1.671977e-01   1.549470e-02  -1.671977e-01   1.549470e-02   4.370239e-02   9.482784e-01
  3.495700e+00   7.476931e-02   9.477047e-01  -1.600204e-01   1.966007e-02  -1.600204e-01   1.966007e-02   7.476931e-02   9.477047e-01
  3.505600e+00   1.060387e-01   9.460471e-01  -1.526833e-01   2.339377e-02  -1.526833e-01   2.339377e-02   1.060387e-01   9.460471e-01
  3.515500e+00   1.374709e-01   9.432838e-01  -1.452068e-01   2.668533e-02  -1.452068e-01   2.668533e-02   1.374709e-01   9.432838e-01
  3.525400e+00   1.690243e-01   9.393942e-01  -1.376120e-01   2.952514e-02  -1.376120e-01   2.952514e-02   1.690243e-01   9.393942e-01
  3.535300e+00   2.006556e-01   9.343595e-01  -1.299209e-01   3.190445e-02  -1.299209e-01   3.190445e-02   2.006556e-01   9.343595e-01
  3.545200e+00   2.323197e-01   9.281624e-01  -1.221564e-01   3.381548e-02  -1.221564e-01   3.381548e-02   2.323197e-01   9.281624e-01
  3.555100e+00   2.639696e-01   9.207875e-01  -1.143420e-01   3.525150e-02  -1.143420e-01   3.525150e-02   2.639696e-01   9.207875e-01
  3.565000e+00   2.955568e-01   9.122215e-01  -1.065022e-01   3.620691e-02  -1.065022e-01   3.620691e-02   2.955568e-01   9.122215e-01
  3.574900e+00   3.270310e-01   9.024532e-01  -9.866187e-02   3.667731e-02  -9.866187e-02   3.667731e-02   3.270310e-01   9.024532e-01
  3.584800e+00   3.583407e-01   8.914738e-01  -9.084675e-02   3.665956e-02  -9.084675e-02   3.665956e-02   3.583407e-01   8.914738e-01
  3.594700e+00   3.894329e-01   8.792770e-01  -8.308307e-02   3.615187e-02  -8.308307e-02   3.615187e-02   3.894329e-01   8.792770e-01
  3.604600e+00   4.202532e-01   8.658590e-01  -7.539758e-02   3.515389e-02  -7.539758e-02   3.515389e-02   4.202532e-01   8.658590e-01
  3.614500e+00   4.507462e-01   8.512188e-01  -6.781743e-02   3.366672e-02  -6.781743e-02   3.366672e-02   4.507462e-01   8.512188e-01
  3.624400e+00   4.808558e-01   8.353585e-01  -6.037009e-02   3.169303e-02  -6.037009e-02   3.169303e-02   4.808558e-01   8.353585e-01
  3.634300e+00   5.105246e-01   8.182831e-01  -5.308330e-02   2.923710e-02  -5.308330e-02   2.923710e-02   5.105246e-01   8.182831e-01
  3.644200e+00   5.396952e-01   8.000006e-01  -4.598489e-02   2.630483e-02  -4.598489e-02   2.630483e-02   5.396952e-01   8.000006e-01
  3.654100e+00   5.683094e-01   7.805225e-01  -3.910274e-02   2.290384e-02  -3.910274e-02   2.290384e-02   5.683094e-01   7.805225e-01
  3.664000e+00   5.963089e-01   7.598634e-01  -3.246464e-02   1.904348e-02  -3.246464e-02   1.904348e-02   5.963089e-01   7.598634e-01
  3.673900e+00   6.236357e-01   7.380416e-01  -2.609814e-02   1.473484e-02  -2.609814e-02   1.473484e-02   6.236357e-01   7.380416e-01
  3.683800e+00   6.502317e-01   7.150785e-01  -2.003046e-02   9.990815e-03  -2.003046e-02   9.990815e-03   6.502317e-01   7.150785e-01
  3.693700e+00   6.760396e-01   6.909992e-01  -1.428838e-02   4.826043e-03  -1.428838e-02   4.826043e-03   6.760396e-01   6.909992e-01
  3.703600e+00   7.010029e-01   6.658322e-01  -8.898026e-03  -7.430447e-04  -8.898026e-03  -7.430447e-04   7.010029e-01   6.658322e-01
  3.713500e+00   7.250659e-01   6.396097e-01  -3.884831e-03  -6.698262e-03  -3.884831e-03  -6.698262e-03   7.250659e-01   6.396097e-01
  3.723400e+00   7.481744e-01   6.123670e-01   7.266676e-04  -1.301969e-02   7.266676e-04  -1.301969e-02   7.481744e-01   6.123670e-01
  3.733300e+00   7.702757e-01   5.841432e-01   4.912933e-03  -1.968573e-02   4.912933e-03  -1.968573e-02   7.702757e-01   5.841432e-01
  3.743200e+00   7.913189e-01   5.549805e-01   8.651572e-03  -2.667312e-02   8.651572e-03  -2.667312e-02   7.913189e-01   5.549805e-01
  3.753100e+00   8.112551e-01   5.249243e-01   1.192146e-02  -3.395706e-02   1.192146e-02  -3.395706e-02   8.112551e-01   5.249243e-01
  3.763000e+00   8.300379e-01   4.940234e-01   1.470289e-02  -4.151123e-02   1.470289e-02  -4.151123e-02   8.300379e-01   4.940234e-01
  3.772900e+00   8.476232e-01   4.623293e-01   1.697765e-02  -4.930789e-02   1.697765e-02  -4.930789e-02   8.476232e-01   4.623293e-01
  3.782800e+00   8.639700e-01   4.298965e-01   1.872917e-02  -5.731803e-02   1.872917e-02  -5.731803e-02   8.639700e-01   4.298965e-01
  3.792700e+00   8.790399e-01   3.967820e-01   1.994265e-02  -6.551139e-02   1.994265e-02  -6.551139e-02   8.790399e-01   3.967820e-01
  3.802600e+00   8.927981e-01   3.630453e-01   2.060511e-02  -7.385667e-02   2.060511e-02  -7.385667e-02   8.927981e-01   3.630453e-01
  3.812500e+00   9.052129e-01   3.287481e-01   2.070550e-02  -8.232160e-02   2.070550e-02  -8.232160e-02   9.052129e-01   3.287481e-01
  3.822400e+00   9.162563e-01   2.939542e-01   2.023479e-02  -9.087312e-02   2.023479e-02  -9.087312e-02   9.162563e-01   2.939542e-01
  3.832300e+00   9.259041e-01   2.587289e-01   1.918602e-02  -9.947747e-02   1.918602e-02  -9.947747e-02   9.259041e-01   2.587289e-01
  3.842200e+00   9.341357e-01   2.231390e-01   1.755436e-02  -1.081004e-01   1.755436e-02  -1.081004e-01   9.341357e-01   2.231390e-01
  3.852100e+00   9.409346e-01   1.872526e-01   1.533715e-02  -1.167073e-01   1.533715e-02  -1.167073e-01   9.409346e-01   1.872526e-01
  3.862000e+00   9.462883e-01   1.511386e-01   1.253393e-02  -1.252634e-01   1.253393e-02  -1.252634e-01   9.462883e-01   1.511386e-01
  3.871900e+00   9.501882e-01   1.148665e-01   9.146437e-03  -1.337338e-01   9.146437e-03  -1.337338e-01   9.501882e-01   1.148665e-01
  3.881800e+00   9.526300e-01   7.850616e-02   5.178639e-03  -1.420837e-01   5.178639e-03  -1.420837e-01   9.526300e-01   7.850616e-02
  3.891700e+00   9.536135e-01   4.212735e-02   6.366816e-04  -1.502788e-01   6.366816e-04  -1.502788e-01   9.536135e-01   4.212735e-02
  3.901600e+00   9.531424e-01   5.799669e-03  -4.471119e-03  -1.582849e-01  -4.471119e-03  -1.582849e-01   9.531424e-01   5.799669e-03
  3.911500e+00   9.512245e-01  -3.040790e-02  -1.013432e-02  -1.660688e-01  -1.013432e-02  -1.660688e-01   9.512245e-01  -3.040790e-02
  3.921400e+00   9.478716e-01  -6.642722e-02  -1.634042e-02  -1.735978e-01  -1.634042e-02  -1.735978e-01   9.478716e-01  -6.642722e-02
  3.931300e+00   9.430995e-01  -1.021913e-01  -2.307489e-02  -1.808400e-01  -2.307489e-02  -1.808400e-01   9.430995e-01  -1.021913e-01
  3.941200e+00   9.369273e-01  -1.376344e-01  -3.032130e-02  -1.877648e-01  -3.032130e-02  -1.877648e-01   9.369273e-01  -1.376344e-01
  3.951100e+00   9.293783e-01  -1.726926e-01  -3.806138e-02  -1.943426e-01  -3.806138e-02  -1.943426e-01   9.293783e-01  -1.726926e-01
  3.961000e+00   9.204787e-01  -2.073037e-01  -4.627511e-02  -2.005451e-01  -4.627511e-02  -2.005451e-01   9.204787e-01  -2.073037e-01
  3.970900e+00   9.102585e-01  -2.414076e-01  -5.494085e-02  -2.063454e-01  -5.494085e-02  -2.063454e-01   9.102585e-01  -2.414076e-01
  3.980800e+00   8.987504e-01  -2.749465e-01  -6.403546e-02  -2.117180e-01  -6.403546e-02  -2.117180e-01   8.987504e-01  -2.749465e-01
  3.990700e+00   8.859902e-01  -3.078652e-01  -7.353439e-02  -2.166393e-01  -7.353439e-02  -2.166393e-01   8.859902e-01  -3.078652e-01
  4.000600e+00   8.720165e-01  -3.401108e-01  -8.341182e-02  -2.210869e-01  -8.341182e-02  -2.210869e-01   8.720165e-01  -3.401108e-01
  4.010500e+00   8.568700e-01  -3.716334e-01  -9.364081e-02  -2.250405e-01  -9.364081e-02  -2.250405e-01   8.568700e-01  -3.716334e-01
  4.020400e+00   8.405940e-01  -4.023859e-01  -1.041934e-01  -2.284814e-01  -1.041934e-01  -2.284814e-01   8.405940e-01  -4.023859e-01
  4.030300e+00   8.232338e-01  -4.323243e-01  -1.150408e-01  -2.313927e-01  -1.150408e-01  -2.313927e-01   8.232338e-01  -4.323243e-01
  4.040200e+00   8.048362e-01  -4.614075e-01  -1.261534e-01  -2.337596e-01  -1.261534e-01  -2.337596e-01   8.048362e-01  -4.614075e-01
  4.050100e+00   7.854499e-01  -4.895976e-01  -1.375012e-01  -2.355687e-01  -1.375012e-01  -2.355687e-01   7.854499e-01  -4.895976e-01
  4.060000e+00   7.651246e-01  -5.168599e-01  -1.490534e-01  -2.368090e-01  -1.490534e-01  -2.368090e-01   7.651246e-01  -5.168599e-01
  4.069900e+00   7.439114e-01  -5.431627e-01  -1.607793e-01  -2.374711e-01  -1.607793e-01  -2.374711e-01   7.439114e-01  -5.431627e-01
  4.079800e+00   7.218620e-01  -5.684778e-01  -1.726476e-01  -2.375474e-01  -1.726476e-01  -2.375474e-01   7.218620e-01  -5.684778e-01
  4.089700e+00   6.990290e-01  -5.927798e-01  -1.846272e-01  -2.370324e-01  -1.846272e-01  -2.370324e-01   6.990290e-01  -5.927798e-01
  4.099600e+00   6.754650e-01  -6.160469e-01  -1.966869e-01  -2.359223e-01  -1.966869e-01  -2.359223e-01   6.754650e-01  -6.160469e-01
  4.109500e+00   6.512233e-01  -6.382599e-01  -2.087957e-01  -2.342150e-01  -2.087957e-01  -2.342150e-01   6.512233e-01  -6.382599e-01
  4.119400e+00   6.263570e-01  -6.594030e-01  -2.209229e-01  -2.319101e-01  -2.209229e-01  -2.319101e-01   6.263570e-01  -6.594030e-01
  4.129300e+00   6.009189e-01  -6.794633e-01  -2.330382e-01  -2.290092e-01  -2.330382e-01  -2.290092e-01   6.009189e-01  -6.794633e-01
  4.139200e+00   5.749618e-01  -6.984306e-01  -2.451116e-01  -2.255152e-01  -2.451116e-01  -2.255152e-01   5.749618e-01  -6.984306e-01
  4.149100e+00   5.485377e-01  -7.162977e-01  -2.571139e-01  -2.214326e-01  -2.571139e-01  -2.214326e-01   5.485377e-01  -7.162977e-01
  4.159000e+00   5.216980e-01  -7.330601e-01  -2.690163e-01  -2.167676e-01  -2.690163e-01  -2.167676e-01   5.216980e-01  -7.330601e-01
  4.168900e+00   4.944935e-01  -7.487157e-01  -2.807909e-01  -2.115276e-01  -2.807909e-01  -2.115276e-01   4.944935e-01  -7.487157e-01
  4.178800e+00   4.669738e-01  -7.632650e-01  -2.924105e-01  -2.057214e-01  -2.924105e-01  -2.057214e-01   4.669738e-01  -7.632650e-01
  4.188700e+00   4.391877e-01  -7.767109e-01  -3.038487e-01  -1.993591e-01  -3.038487e-01  -1.993591e-01   4.391877e-01  -7.767109e-01
  4.198600e+00   4.111827e-01  -7.890583e-01  -3.150802e-01  -1.924521e-01  -3.150802e-01  -1.924521e-01   4.111827e-01  -7.890583e-01
  4.208500e+00   3.830051e-01  -8.003145e-01  -3.260802e-01  -1.850127e-01  -3.260802e-01  -1.850127e-01   3.830051e-01  -8.003145e-01
  4.218400e+00   3.546998e-01  -8.104884e-01  -3.368255e-01  -1.770544e-01  -3.368255e-01  -1.770544e-01   3.546998e-01  -8.104884e-01
  4.228300e+00   3.263105e-01  -8.195912e-01  -3.472934e-01  -1.685915e-01  -3.472934e-01  -1.685915e-01   3.263105e-01  -8.195912e-01
  4.238200e+00   2.978792e-01  -8.276355e-01  -3.574624e-01  -1.596393e-01  -3.574624e-01  -1.596393e-01   2.978792e-01  -8.276355e-01
  4.248100e+00   2.694467e-01  -8.346354e-01  -3.673122e-01  -1.502138e-01  -3.673122e-01  -1.502138e-01   2.694467e-01  -8.346354e-01
  4.258000e+00   2.410521e-01  -8.406068e-01  -3.768235e-01  -1.403319e-01  -3.768235e-01  -1.403319e-01   2.410521e-01  -8.406068e-01
  4.267900e+00   2.127327e-01  -8.455666e-01  -3.859780e-01  -1.300109e-01  -3.859780e-01  -1.300109e-01   2.127327e-01  -8.455666e-01
  4.277800e+00   1.845247e-01  -8.495330e-01  -3.947585e-01  -1.192689e-01  -3.947585e-01  -1.192689e-01   1.845247e-01  -8.495330e-01
  4.287700e+00   1.564624e-01  -8.525254e-01  -4.031490e-01  -1.081242e-01  -4.031490e-01  -1.081242e-01   1.564624e-01  -8.525254e-01
  4.297600e+00   1.285784e-01  -8.545641e-01  -4.111346e-01  -9.659572e-02  -4.111346e-01  -9.659572e-02   1.285784e-01  -8.545641e-01
  4.307500e+00   1.009039e-01  -8.556703e-01  -4.187014e-01  -8.470279e-02  -4.187014e-01  -8.470279e-02   1.009039e-01  -8.556703e-01
  4.317400e+00   7.346839e-02  -8.558658e-01  -4.258366e-01  -7.246492e-02  -4.258366e-01  -7.246492e-02   7.346839e-02  -8.558658e-01
  4.327300e+00   4.629992e-02  -8.551732e-01  -4.325284e-01  -5.990189e-02  -4.325284e-01  -5.990189e-02   4.629992e-02  -8.551732e-01
  4.337200e+00   1.942483e-02  -8.536156e-01  -4.387662e-01  -4.703365e-02  -4.387662e-01  -4.703365e-02   1.942483e-02  -8.536156e-01
  4.347100e+00  -7.132026e-03  -8.512167e-01  -4.445402e-01  -3.388029e-02  -4.445402e-01  -3.388029e-02  -7.132026e-03  -8.512167e-01
  4.357000e+00  -3.334729e-02  -8.480004e-01  -4.498418e-01  -2.046195e-02  -4.498418e-01  -2.046195e-02  -3.334729e-02  -8.480004e-01
  4.366900e+00  -5.919910e-02  -8.439909e-01  -4.546632e-01  -6.798796e-03  -4.546632e-01  -6.798796e-03  -5.919910e-02  -8.439909e-01
  4.376800e+00  -8.466701e-02  -8.392127e-01  -4.589978e-01   7.089016e-03  -4.589978e-01   7.089016e-03  -8.466701e-02  -8.392127e-01
  4.386700e+00  -1.097320e-01  -8.336904e-01  -4.628395e-01   2.118141e-02  -4.628395e-01   2.118141e-02  -1.097320e-01  -8.336904e-01
  4.396600e+00  -1.343763e-01  -8.274487e-01  -4.661835e-01   3.545841e-02  -4.661835e-01   3.545841e-02  -1.343763e-01  -8.274487e-01
  4.406500e+00  -1.585837e-01  -8.205123e-01  -4.690256e-01   4.990018e-02  -4.690256e-01   4.990018e-02  -1.585837e-01  -8.205123e-01
  4.416400e+00  -1.823390e-01  -8.129057e-01  -4.713626e-01   6.448705e-02  -4.713626e-01   6.448705e-02  -1.823390e-01  -8.129057e-01
  4.426300e+00  -2.056283e-01  -8.046537e-01  -4.731919e-01   7.919958e-02  -4.731919e-01   7.919958e-02  -2.056283e-01  -8.046537e-01
  4.436200e+00  -2.284389e-01  -7.957805e-01  -4.745118e-01   9.401854e-02  -4.745118e-01   9.401854e-02  -2.284389e-01  -7.957805e-01
  4.446100e+00  -2.507593e-01  -7.863104e-01  -4.753214e-01   1.089250e-01  -4.753214e-01   1.089250e-01  -2.507593e-01  -7.863104e-01
  4.456000e+00  -2.725790e-01  -7.762673e-01  -4.756202e-01   1.239001e-01  -4.756202e-01   1.239001e-01  -2.725790e-01  -7.762673e-01
  4.465900e+00  -2.938883e-01  -7.656750e-01  -4.754087e-01   1.389257e-01  -4.754087e-01   1.389257e-01  -2.938883e-01  -7.656750e-01
  4.475800e+00  -3.146790e-01  -7.545569e-01  -4.746878e-01   1.539835e-01  -4.746878e-01   1.539835e-01  -3.146790e-01  -7.545569e-01
  4.485700e+00  -3.349434e-01  -7.429361e-01  -4.734591e-01   1.690559e-01  -4.734591e-01   1.690559e-01  -3.349434e-01  -7.429361e-01
  4.495600e+00  -3.546748e-01  -7.308352e-01  -4.717248e-01   1.841255e-01  -4.717248e-01   1.841255e-01  -3.546748e-01  -7.308352e-01
  4.505500e+00  -3.738674e-01  -7.182767e-01  -4.694876e-01   1.991751e-01  -4.694876e-01   1.991751e-01  -3.738674e-01  -7.182767e-01
  4.515400e+00  -3.925161e-01  -7.052825e-01  -4.667506e-01   2.141881e-01  -4.667506e-01   2.141881e-01  -3.925161e-01  -7.052825e-01
  4.525300e+00  -4.106167e-01  -6.918743e-01  -4.635175e-01   2.291482e-01  -4.635175e-01   2.291482e-01  -4.106167e-01  -6.918743e-01
  4.535200e+00  -4.281654e-01  -6.780731e-01  -4.597925e-01   2.440394e-01  -4.597925e-01   2.440394e-01  -4.281654e-01  -6.780731e-01
  4.545100e+00  -4.451595e-01  -6.638997e-01  -4.555801e-01   2.588461e-01  -4.555801e-01   2.588461e-01  -4.451595e-01  -6.638997e-01
  4.555000e+00  -4.615965e-01  -6.493745e-01  -4.508852e-01   2.735532e-01  -4.508852e-01   2.735532e-01  -4.615965e-01  -6.493745e-01
  4.564900e+00  -4.774748e-01  -6.345172e-01  -4.457132e-01   2.881458e-01  -4.457132e-01   2.881458e-01  -4.774748e-01  -6.345172e-01
  4.574800e+00  -4.927930e-01  -6.193474e-01  -4.400696e-01   3.026095e-01  -4.400696e-01   3.026095e-01  -4.927930e-01  -6.193474e-01
  4.584700e+00  -5.075506e-01  -6.038840e-01  -4.339605e-01   3.169303e-01  -4.339605e-01   3.169303e-01  -5.075506e-01  -6.038840e-01
  4.594600e+00  -5.217472e-01  -5.881457e-01  -4.273922e-01   3.310943e-01  -4.273922e-01   3.310943e-01  -5.217472e-01  -5.881457e-01
  4.604500e+00  -5.353831e-01  -5.721505e-01  -4.203711e-01   3.450883e-01  -4.203711e-01   3.450883e-01  -5.353831e-01  -5.721505e-01
  4.614400e+00  -5.484589e-01  -5.559161e-01  -4.129041e-01   3.588994e-01  -4.129041e-01   3.588994e-01  -5.484589e-01  -5.559161e-01
  4.624300e+00  -5.609756e-01  -5.394600e-01  -4.049983e-01   3.725149e-01  -4.049983e-01   3.725149e-01  -5.609756e-01  -5.394600e-01
  4.634200e+00  -5.729344e-01  -5.227990e-01  -3.966608e-01   3.859225e-01  -3.966608e-01   3.859225e-01  -5.729344e-01  -5.227990e-01
  4.644100e+00  -5.843371e-01  -5.059496e-01  -3.878992e-01   3.991103e-01  -3.878992e-01   3.991103e-01  -5.843371e-01  -5.059496e-01
  4.654000e+00  -5.951856e-01  -4.889278e-01  -3.787211e-01   4.120667e-01  -3.787211e-01   4.120667e-01  -5.951856e-01  -4.889278e-01
  4.663900e+00  -6.054821e-01  -4.717496e-01  -3.691343e-01   4.247805e-01  -3.691343e-01   4.247805e-01  -6.054821e-01  -4.717496e-01
  4.673800e+00  -6.152291e-01  -4.544301e-01  -3.591469e-01   4.372407e-01  -3.591469e-01   4.372407e-01  -6.152291e-01  -4.544301e-01
  4.683700e+00  -6.244292e-01  -4.369844e-01  -3.487669e-01   4.494366e-01  -3.487669e-01   4.494366e-01  -6.244292e-01  -4.369844e-01
  4.693600e+00  -6.330854e-01  -4.194273e-01  -3.380026e-01   4.613579e-01  -3.380026e-01   4.613579e-01  -6.330854e-01  -4.194273e-01
  4.703500e+00  -6.412008e-01  -4.017730e-01  -3.268624e-01   4.729945e-01  -3.268624e-01   4.729945e-01  -6.412008e-01  -4.017730e-01
  4.713400e+00  -6.487786e-01  -3.840356e-01  -3.153549e-01   4.843365e-01  -3.153549e-01   4.843365e-01  -6.487786e-01  -3.840356e-01
  4.723300e+00  -6.558223e-01  -3.662288e-01  -3.034887e-01   4.953746e-01  -3.034887e-01   4.953746e-01  -6.558223e-01  -3.662288e-01
  4.733200e+00  -6.623356e-01  -3.483661e-01  -2.912725e-01   5.060993e-01  -2.912725e-01   5.060993e-01  -6.623356e-01  -3.483661e-01
  4.743100e+00  -6.683221e-01  -3.304606e-01  -2.787152e-01   5.165017e-01  -2.787152e-01   5.165017e-01  -6.683221e-01  -3.304606e-01
  4.753000e+00  -6.737858e-01  -3.125253e-01  -2.658257e-01   5.265729e-01  -2.658257e-01   5.265729e-01  -6.737858e-01  -3.125253e-01
  4.762900e+00  -6.787308e-01  -2.945728e-01  -2.526131e-01   5.363043e-01  -2.526131e-01   5.363043e-01  -6.787308e-01  -2.945728e-01
  4.772800e+00  -6.831612e-01  -2.766155e-01  -2.390865e-01   5.456876e-01  -2.390865e-01   5.456876e-01  -6.831612e-01  -2.766155e-01
  4.782700e+00  -6.870812e-01  -2.586657e-01  -2.252551e-01   5.547147e-01  -2.252551e-01   5.547147e-01  -6.870812e-01  -2.586657e-01
  4.792600e+00  -6.904952e-01  -2.407354e-01  -2.111282e-01   5.633776e-01  -2.111282e-01   5.633776e-01  -6.904952e-01  -2.407354e-01
  4.802500e+00  -6.934079e-01  -2.228363e-01  -1.967153e-01   5.716685e-01  -1.967153e-01   5.716685e-01  -6.934079e-01  -2.228363e-01
  4.812400e+00  -6.958237e-01  -2.049801e-01  -1.820259e-01   5.795798e-01  -1.820259e-01   5.795798e-01  -6.958237e-01  -2.049801e-01
  4.822300e+00  -6.977475e-01  -1.871783e-01  -1.670696e-01   5.871041e-01  -1.670696e-01   5.871041e-01  -6.977475e-01  -1.871783e-01
  4.832200e+00  -6.991841e-01  -1.694420e-01  -1.518561e-01   5.942343e-01  -1.518561e-01   5.942343e-01  -6.991841e-01  -1.694420e-01
  4.842100e+00  -7.001385e-01  -1.517825e-01  -1.363952e-01   6.009631e-01  -1.363952e-01   6.009631e-01  -7.001385e-01  -1.517825e-01
  4.852000e+00  -7.006157e-01  -1.342106e-01  -1.206969e-01   6.072839e-01  -1.206969e-01   6.072839e-01  -7.006157e-01  -1.342106e-01
  4.861900e+00  -7.006210e-01  -1.167373e-01  -1.047711e-01   6.131897e-01  -1.047711e-01   6.131897e-01  -7.006210e-01  -1.167373e-01
  4.871800e+00  -7.001598e-01  -9.937310e-02  -8.862814e-02   6.186740e-01  -8.862814e-02   6.186740e-01  -7.001598e-01  -9.937310e-02
  4.881700e+00  -6.992375e-01  -8.212867e-02  -7.227822e-02   6.237303e-01  -7.227822e-02   6.237303e-01  -6.992375e-01  -8.212867e-02
  4.891600e+00  -6.978597e-01  -6.501440e-02  -5.573178e-02   6.283525e-01  -5.573178e-02   6.283525e-01  -6.978597e-01  -6.501440e-02
  4.901500e+00  -6.960321e-01  -4.804061e-02  -3.899938e-02   6.325343e-01  -3.899938e-02   6.325343e-01  -6.960321e-01  -4.804061e-02
  4.911400e+00  -6.937607e-01  -3.121749e-02  -2.209174e-02   6.362698e-01  -2.209174e-02   6.362698e-01  -6.937607e-01  -3.121749e-02
  4.921300e+00  -6.910516e-01  -1.455509e-02  -5.019726e-03   6.395531e-01  -5.019726e-03   6.395531e-01  -6.910516e-01  -1.455509e-02
  4.931200e+00  -6.879108e-01   1.936618e-03   1.220564e-02   6.423786e-01   1.220564e-02   6.423786e-01  -6.879108e-01   1.936618e-03
  4.941100e+00  -6.843448e-01   1.824781e-02   2.957316e-02   6.447408e-01   2.957316e-02   6.447408e-01  -6.843448e-01   1.824781e-02
  4.951000e+00  -6.803602e-01   3.436876e-02   4.707147e-02   6.466344e-01   4.707147e-02   6.466344e-01  -6.803602e-01   3.436876e-02
  4.960900e+00  -6.759636e-01   5.028988e-02   6.468902e-02   6.480541e-01   6.468902e-02   6.480541e-01  -6.759636e-01   5.028988e-02
  4.970800e+00  -6.711619e-01   6.600168e-02   8.241406e-02   6.489950e-01   8.241406e-02   6.489950e-01  -6.711619e-01   6.600168e-02
  4.980700e+00  -6.659622e-01   8.149482e-02   1.002347e-01   6.494523e-01   1.002347e-01   6.494523e-01  -6.659622e-01   8.149482e-02
  4.990600e+00  -6.603719e-01   9.676007e-02   1.181387e-01   6.494214e-01   1.181387e-01   6.494214e-01  -6.603719e-01   9.676007e-02
  5.000500e+00  -6.543983e-01   1.117883e-01   1.361138e-01   6.488979e-01   1.361138e-01   6.488979e-01  -6.543983e-01   1.117883e-01
  5.010400e+00  -6.480492e-01   1.265707e-01   1.541475e-01   6.478776e-01   1.541475e-01   6.478776e-01  -6.480492e-01   1.265707e-01
  5.020300e+00  -6.413324e-01   1.410983e-01   1.722269e-01   6.463564e-01   1.722269e-01   6.463564e-01  -6.413324e-01   1.410983e-01
  5.030200e+00  -6.342561e-01   1.553626e-01   1.903391e-01   6.443308e-01   1.903391e-01   6.443308e-01  -6.342561e-01   1.553626e-01
  5.040100e+00  -6.268286e-01   1.693551e-01   2.084709e-01   6.417972e-01   2.084709e-01   6.417972e-01  -6.268286e-01   1.693551e-01
  5.050000e+00  -6.190584e-01   1.830674e-01   2.266088e-01   6.387524e-01   2.266088e-01   6.387524e-01  -6.190584e-01   1.830674e-01
  5.059900e+00  -6.109542e-01   1.964914e-01   2.447392e-01   6.351934e-01   2.447392e-01   6.351934e-01  -6.109542e-01   1.964914e-01
  5.069800e+00  -6.025251e-01   2.096192e-01   2.628482e-01   6.311177e-01   2.628482e-01   6.311177e-01  -6.025251e-01   2.096192e-01
  5.079700e+00  -5.937803e-01   2.224431e-01   2.809217e-01   6.265229e-01   2.809217e-01   6.265229e-01  -5.937803e-01   2.224431e-01
  5.089600e+00  -5.847291e-01   2.349556e-01   2.989453e-01   6.214070e-01   2.989453e-01   6.214070e-01  -5.847291e-01   2.349556e-01
  5.099500e+00  -5.753813e-01   2.471494e-01   3.169045e-01   6.157683e-01   3.169045e-01   6.157683e-01  -5.753813e-01   2.471494e-01
  5.109400e+00  -5.657467e-01   2.590173e-01   3.347846e-01   6.096056e-01   3.347846e-01   6.096056e-01  -5.657467e-01   2.590173e-01
  5.119300e+00  -5.558353e-01   2.705527e-01   3.525704e-01   6.029178e-01   3.525704e-01   6.029178e-01  -5.558353e-01   2.705527e-01
  5.129200e+00  -5.456575e-01   2.817489e-01   3.702470e-01   5.957046e-01   3.702470e-01   5.957046e-01  -5.456575e-01   2.817489e-01
  5.139100e+00  -5.352238e-01   2.925998e-01   3.877987e-01   5.879657e-01   3.877987e-01   5.879657e-01  -5.352238e-01   2.925998e-01
  5.149000e+00  -5.245450e-01   3.030992e-01   4.052102e-01   5.797015e-01   4.052102e-01   5.797015e-01  -5.245450e-01   3.030992e-01
  5.158900e+00  -5.136318e-01   3.132416e-01   4.224656e-01   5.709127e-01   4.224656e-01   5.709127e-01  -5.136318e-01   3.132416e-01
  5.168800e+00  -5.024955e-01   3.230215e-01   4.395490e-01   5.616006e-01   4.395490e-01   5.616006e-01  -5.024955e-01   3.230215e-01
  5.178700e+00  -4.911472e-01   3.324339e-01   4.564443e-01   5.517668e-01   4.564443e-01   5.517668e-01  -4.911472e-01   3.324339e-01
  5.188600e+00  -4.795986e-01   3.414741e-01   4.731354e-01   5.414137e-01   4.731354e-01   5.414137e-01  -4.795986e-01   3.414741e-01
  5.198500e+00  -4.678611e-01   3.501376e-01   4.896059e-01   5.305439e-01   4.896059e-01   5.305439e-01  -4.678611e-01   3.501376e-01
  5.208400e+00  -4.559467e-01   3.584206e-01   5.058394e-01   5.191607e-01   5.058394e-01   5.191607e-01  -4.559467e-01   3.584206e-01
  5.218300e+00  -4.438671e-01   3.663192e-01   5.218193e-01   5.072679e-01   5.218193e-01   5.072679e-01  -4.438671e-01   3.663192e-01
  5.228200e+00  -4.316345e-01   3.738302e-01   5.375292e-01   4.948700e-01   5.375292e-01   4.948700e-01  -4.316345e-01   3.738302e-01
  5.238100e+00  -4.192610e-01   3.809508e-01   5.529522e-01   4.819717e-01   5.529522e-01   4.819717e-01  -4.192610e-01   3.809508e-01
  5.248000e+00  -4.067588e-01   3.876784e-01   5.680719e-01   4.685788e-01   5.680719e-01   4.685788e-01  -4.067588e-01   3.876784e-01
  5.257900e+00  -3.941404e-01   3.940110e-01   5.828716e-01   4.546974e-01   5.828716e-01   4.546974e-01  -3.941404e-01   3.940110e-01
  5.267800e+00  -3.814180e-01   3.999468e-01   5.973347e-01   4.403342e-01   5.973347e-01   4.403342e-01  -3.814180e-01   3.999468e-01
  5.277700e+00  -3.686043e-01   4.054846e-01   6.114446e-01   4.254966e-01   6.114446e-01   4.254966e-01  -3.686043e-01   4.054846e-01
  5.287600e+00  -3.557117e-01   4.106235e-01   6.251849e-01   4.101926e-01   6.251849e-01   4.101926e-01  -3.557117e-01   4.106235e-01
  5.297500e+00  -3.427527e-01   4.153632e-01   6.385392e-01   3.944310e-01   6.385392e-01   3.944310e-01  -3.427527e-01   4.153632e-01
  5.307400e+00  -3.297398e-01   4.197036e-01   6.514913e-01   3.782210e-01   6.514913e-01   3.782210e-01  -3.297398e-01   4.197036e-01
  5.317300e+00  -3.166855e-01   4.236452e-01   6.640252e-01   3.615726e-01   6.640252e-01   3.615726e-01  -3.166855e-01   4.236452e-01
  5.327200e+00  -3.036023e-01   4.271889e-01   6.761250e-01   3.444964e-01   6.761250e-01   3.444964e-01  -3.036023e-01   4.271889e-01
  5.337100e+00  -2.905026e-01   4.303359e-01   6.877752e-01   3.270035e-01   6.877752e-01   3.270035e-01  -2.905026e-01   4.303359e-01
  5.347000e+00  -2.773986e-01   4.330882e-01   6.989605e-01   3.091060e-01   6.989605e-01   3.091060e-01  -2.773986e-01   4.330882e-01
  5.356900e+00  -2.643027e-01   4.354477e-01   7.096657e-01   2.908163e-01   7.096657e-01   2.908163e-01  -2.643027e-01   4.354477e-01
  5.366800e+00  -2.512268e-01   4.374171e-01   7.198762e-01   2.721476e-01   7.198762e-01   2.721476e-01  -2.512268e-01   4.374171e-01
  5.376700e+00  -2.381830e-01   4.389996e-01   7.295777e-01   2.531137e-01   7.295777e-01   2.531137e-01  -2.381830e-01   4.389996e-01
  5.386600e+00  -2.251830e-01   4.401984e-01   7.387562e-01   2.337290e-01   7.387562e-01   2.337290e-01  -2.251830e-01   4.401984e-01
  5.396500e+00  -2.122385e-01   4.410175e-01   7.473982e-01   2.140085e-01   7.473982e-01   2.140085e-01  -2.122385e-01   4.410175e-01
  5.406400e+00  -1.993609e-01   4.414612e-01   7.554907e-01   1.939678e-01   7.554907e-01   1.939678e-01  -1.993609e-01   4.414612e-01
  5.416300e+00  -1.865614e-01   4.415340e-01   7.630212e-01   1.736231e-01   7.630212e-01   1.736231e-01  -1.865614e-01   4.415340e-01
  5.426200e+00  -1.738509e-01   4.412411e-01   7.699774e-01   1.529912e-01   7.699774e-01   1.529912e-01  -1.738509e-01   4.412411e-01
  5.436100e+00  -1.612403e-01   4.405878e-01   7.763481e-01   1.320892e-01   7.763481e-01   1.320892e-01  -1.612403e-01   4.405878e-01
  5.446000e+00  -1.487399e-01   4.395800e-01   7.821222e-01   1.109351e-01   7.821222e-01   1.109351e-01  -1.487399e-01   4.395800e-01
  5.455900e+00  -1.363599e-01   4.382236e-01   7.872895e-01   8.954698e-02   7.872895e-01   8.954698e-02  -1.363599e-01   4.382236e-01
  5.465800e+00  -1.241102e-01   4.365251e-01   7.918403e-01   6.794373e-02   7.918403e-01   6.794373e-02  -1.241102e-01   4.365251e-01
  5.475700e+00  -1.120004e-01   4.344913e-01   7.957656e-01   4.614448e-02   7.957656e-01   4.614448e-02  -1.120004e-01   4.344913e-01
  5.485600e+00  -1.000396e-01   4.321292e-01   7.990569e-01   2.416883e-02   7.990569e-01   2.416883e-02  -1.000396e-01   4.321292e-01
  5.495500e+00  -8.823690e-02   4.294462e-01   8.017067e-01   2.036771e-03   8.017067e-01   2.036771e-03  -8.823690e-02   4.294462e-01
  5.505400e+00  -7.660070e-02   4.264497e-01   8.037081e-01  -2.023137e-02   8.037081e-01  -2.023137e-02  -7.660070e-02   4.264497e-01
  5.515300e+00  -6.513925e-02   4.231475e-01   8.050549e-01  -4.261494e-02   8.050549e-01  -4.261494e-02  -6.513925e-02   4.231475e-01
  5.525200e+00  -5.386037e-02   4.195478e-01   8.057415e-01  -6.509300e-02   8.057415e-01  -6.509300e-02  -5.386037e-02   4.195478e-01
  5.535100e+00  -4.277153e-02   4.156588e-01   8.057635e-01  -8.764437e-02   8.057635e-01  -8.764437e-02  -4.277153e-02   4.156588e-01
  5.545000e+00  -3.187980e-02   4.114887e-01   8.051168e-01  -1.102476e-01   8.051168e-01  -1.102476e-01  -3.187980e-02   4.114887e-01
  5.554900e+00  -2.119190e-02   4.070463e-01   8.037984e-01  -1.328812e-01   8.037984e-01  -1.328812e-01  -2.119190e-02   4.070463e-01
  5.564800e+00  -1.071414e-02   4.023401e-01   8.018060e-01  -1.555233e-01   8.018060e-01  -1.555233e-01  -1.071414e-02   4.023401e-01
  5.574700e+00  -4.524587e-04   3.973791e-01   7.991381e-01  -1.781522e-01   7.991381e-01  -1.781522e-01  -4.524587e-04   3.973791e-01
  5.584600e+00   9.587595e-03   3.921720e-01   7.957940e-01  -2.007459e-01   7.957940e-01  -2.007459e-01   9.587595e-03   3.921720e-01
  5.594500e+00   1.940085e-02   3.867280e-01   7.917739e-01  -2.232824e-01   7.917739e-01  -2.232824e-01   1.940085e-02   3.867280e-01
  5.604400e+00   2.898253e-02   3.810561e-01   7.870786e-01  -2.457398e-01   7.870786e-01  -2.457398e-01   2.898253e-02   3.810561e-01
  5.614300e+00   3.832821e-02   3.751654e-01   7.817100e-01  -2.680961e-01   7.817100e-01  -2.680961e-01   3.832821e-02   3.751654e-01
  5.624200e+00   4.743387e-02   3.690649e-01   7.756704e-01  -2.903296e-01   7.756704e-01  -2.903296e-01   4.743387e-02   3.690649e-01
  5.634100e+00   5.629582e-02   3.627639e-01   7.689634e-01  -3.124184e-01   7.689634e-01  -3.124184e-01   5.629582e-02   3.627639e-01
  5.644000e+00   6.491075e-02   3.562713e-01   7.615931e-01  -3.343409e-01   7.615931e-01  -3.343409e-01   6.491075e-02   3.562713e-01
  5.653900e+00   7.327569e-02   3.495964e-01   7.535642e-01  -3.560758e-01   7.535642e-01  -3.560758e-01   7.327569e-02   3.495964e-01
  5.663800e+00   8.138802e-02   3.427480e-01   7.448826e-01  -3.776016e-01   7.448826e-01  -3.776016e-01   8.138802e-02   3.427480e-01
  5.673700e+00   8.924545e-02   3.357352e-01   7.355546e-01  -3.988975e-01   7.355546e-01  -3.988975e-01   8.924545e-02   3.357352e-01
  5.683600e+00   9.684600e-02   3.285669e-01   7.255875e-01  -4.199427e-01   7.255875e-01  -4.199427e-01   9.684600e-02   3.285669e-01
  5.693500e+00   1.041880e-01   3.212518e-01   7.149891e-01  -4.407167e-01   7.149891e-01  -4.407167e-01   1.041880e-01   3.212518e-01
  5.703400e+00   1.112701e-01   3.137988e-01   7.037681e-01  -4.611995e-01   7.037681e-01  -4.611995e-01   1.112701e-01   3.137988e-01
  5.713300e+00   1.180912e-01   3.062163e-01   6.919337e-01  -4.813711e-01   6.919337e-01  -4.813711e-01   1.180912e-01   3.062163e-01
  5.723200e+00   1.246504e-01   2.985130e-01   6.794960e-01  -5.012124e-01   6.794960e-01  -5.012124e-01   1.246504e-01   2.985130e-01
  5.733100e+00   1.309473e-01   2.906970e-01   6.664655e-01  -5.207041e-01   6.664655e-01  -5.207041e-01   1.309473e-01   2.906970e-01
  5.743000e+00   1.369814e-01   2.827768e-01   6.528536e-01  -5.398278e-01   6.528536e-01  -5.398278e-01   1.369814e-01   2.827768e-01
  5.752900e+00   1.427528e-01   2.747603e-01   6.386720e-01  -5.585653e-01   6.386720e-01  -5.585653e-01   1.427528e-01   2.747603e-01
  5.762800e+00   1.482615e-01   2.666555e-01   6.239334e-01  -5.768989e-01   6.239334e-01  -5.768989e-01   1.482615e-01   2.666555e-01
  5.772700e+00   1.535078e-01   2.584703e-01   6.086506e-01  -5.948114e-01   6.086506e-01  -5.948114e-01   1.535078e-01   2.584703e-01
  5.782600e+00   1.584924e-01   2.502123e-01   5.928373e-01  -6.122862e-01   5.928373e-01  -6.122862e-01   1.584924e-01   2.502123e-01
  5.792500e+00   1.632159e-01   2.418890e-01   5.765075e-01  -6.293070e-01   5.765075e-01  -6.293070e-01   1.632159e-01   2.418890e-01
  5.802400e+00   1.676791e-01   2.335078e-01   5.596759e-01  -6.458581e-01   5.596759e-01  -6.458581e-01   1.676791e-01   2.335078e-01
  5.812300e+00   1.718831e-01   2.250759e-01   5.423575e-01  -6.619246e-01   5.423575e-01  -6.619246e-01   1.718831e-01   2.250759e-01
  5.822200e+00   1.758291e-01   2.166004e-01   5.245679e-01  -6.774917e-01   5.245679e-01  -6.774917e-01   1.758291e-01   2.166004e-01
  5.832100e+00   1.795183e-01   2.080883e-01   5.063229e-01  -6.925456e-01   5.063229e-01  -6.925456e-01   1.795183e-01   2.080883e-01
  5.842000e+00   1.829522e-01   1.995462e-01   4.876389e-01  -7.070727e-01   4.876389e-01  -7.070727e-01   1.829522e-01   1.995462e-01
  5.851900e+00   1.861324e-01   1.909809e-01   4.685327e-01  -7.210604e-01   4.685327e-01  -7.210604e-01   1.861324e-01   1.909809e-01
  5.861800e+00   1.890603e-01   1.823989e-01   4.490213e-01  -7.344962e-01   4.490213e-01  -7.344962e-01   1.890603e-01   1.823989e-01
  5.871700e+00   1.917379e-01   1.738066e-01   4.291222e-01  -7.473687e-01   4.291222e-01  -7.473687e-01   1.917379e-01   1.738066e-01
  5.881600e+00   1.941668e-01   1.652102e-01   4.088530e-01  -7.596667e-01   4.088530e-01  -7.596667e-01   1.941668e-01   1.652102e-01
  5.891500e+00   1.963491e-01   1.566160e-01   3.882318e-01  -7.713799e-01   3.882318e-01  -7.713799e-01   1.963491e-01   1.566160e-01
  5.901400e+00   1.982867e-01   1.480299e-01   3.672768e-01  -7.824984e-01   3.672768e-01  -7.824984e-01   1.982867e-01   1.480299e-01
  5.911300e+00   1.999817e-01   1.394579e-01   3.460067e-01  -7.930131e-01   3.460067e-01  -7.930131e-01   1.999817e-01   1.394579e-01
  5.921200e+00   2.014361e-01   1.309058e-01   3.244400e-01  -8.029154e-01   3.244400e-01  -8.029154e-01   2.014361e-01   1.309058e-01
  5.931100e+00   2.026523e-01   1.223795e-01   3.025958e-01  -8.121975e-01   3.025958e-01  -8.121975e-01   2.026523e-01   1.223795e-01
  5.941000e+00   2.036324e-01   1.138845e-01   2.804933e-01  -8.208519e-01   2.804933e-01  -8.208519e-01   2.036324e-01   1.138845e-01
  5.950900e+00   2.043788e-01   1.054264e-01   2.581516e-01  -8.288720e-01   2.581516e-01  -8.288720e-01   2.043788e-01   1.054264e-01
  5.960800e+00   2.048940e-01   9.701079e-02   2.355902e-01  -8.362519e-01   2.355902e-01  -8.362519e-01   2.048940e-01   9.701079e-02
  5.970700e+00   2.051803e-01   8.864301e-02   2.128286e-01  -8.429861e-01   2.128286e-01  -8.429861e-01   2.051803e-01   8.864301e-02
  5.980600e+00   2.052403e-01   8.032847e-02   1.898864e-01  -8.490698e-01   1.898864e-01  -8.490698e-01   2.052403e-01   8.032847e-02
  5.990500e+00   2.050765e-01   7.207245e-02   1.667834e-01  -8.544989e-01   1.667834e-01  -8.544989e-01   2.050765e-01   7.207245e-02
  6.000400e+00   2.046918e-01   6.388021e-02   1.435393e-01  -8.592699e-01   1.435393e-01  -8.592699e-01   2.046918e-01   6.388021e-02
  6.010300e+00   2.040887e-01   5.575694e-02   1.201739e-01  -8.633799e-01   1.201739e-01  -8.633799e-01   2.040887e-01   5.575694e-02
  6.020200e+00   2.032701e-01   4.770778e-02   9.670689e-02  -8.668266e-01   9.670689e-02  -8.668266e-01   2.032701e-01   4.770778e-02
  6.030100e+00   2.022389e-01   3.973781e-02   7.315820e-02  -8.696085e-01   7.315820e-02  -8.696085e-01   2.022389e-01   3.973781e-02
  6.040000e+00   2.009982e-01   3.185209e-02   4.954753e-02  -8.717244e-01   4.954753e-02  -8.717244e-01   2.009982e-01   3.185209e-02
  6.049900e+00   1.995508e-01   2.405560e-02   2.589462e-02  -8.731741e-01   2.589462e-02  -8.731741e-01   1.995508e-01   2.405560e-02
  6.059800e+00   1.979001e-01   1.635330e-02   2.219109e-03  -8.739576e-01   2.219109e-03  -8.739576e-01   1.979001e-01   1.635330e-02
  6.069700e+00   1.960492e-01   8.750098e-03  -2.145943e-02  -8.740759e-01  -2.145943e-02  -8.740759e-01   1.960492e-01   8.750098e-03
  6.079600e+00   1.940015e-01   1.250840e-03  -4.512153e-02  -8.735304e-01  -4.512153e-02  -8.735304e-01   1.940015e-01   1.250840e-03
  6.089500e+00   1.917605e-01  -6.139662e-03  -6.874786e-02  -8.723229e-01  -6.874786e-02  -8.723229e-01   1.917605e-01  -6.139662e-03
  6.099400e+00   1.893298e-01  -1.341665e-02  -9.231922e-02  -8.704563e-01  -9.231922e-02  -8.704563e-01   1.893298e-01  -1.341665e-02
  6.109300e+00   1.867130e-01  -2.057543e-02  -1.158166e-01  -8.679336e-01  -1.158166e-01  -8.679336e-01   1.867130e-01  -2.057543e-02
  6.119200e+00   1.839138e-01  -2.761135e-02  -1.392210e-01  -8.647585e-01  -1.392210e-01  -8.647585e-01   1.839138e-01  -2.761135e-02
  6.129100e+00   1.809364e-01  -3.451983e-02  -1.625140e-01  -8.609355e-01  -1.625140e-01  -8.609355e-01   1.809364e-01  -3.451983e-02
  6.139000e+00   1.777846e-01  -4.129635e-02  -1.856770e-01  -8.564693e-01  -1.856770e-01  -8.564693e-01   1.777846e-01  -4.129635e-02
  6.148900e+00   1.744627e-01  -4.793647e-02  -2.086918e-01  -8.513654e-01  -2.086918e-01  -8.513654e-01   1.744627e-01  -4.793647e-02
  6.158800e+00   1.709750e-01  -5.443583e-02  -2.315404e-01  -8.456296e-01  -2.315404e-01  -8.456296e-01   1.709750e-01  -5.443583e-02
  6.168700e+00   1.673259e-01  -6.079014e-02  -2.542052e-01  -8.392686e-01  -2.542052e-01  -8.392686e-01   1.673259e-01  -6.079014e-02
  6.178600e+00   1.635201e-01  -6.699520e-02  -2.766687e-01  -8.322892e-01  -2.766687e-01  -8.322892e-01   1.635201e-01  -6.699520e-02
  6.188500e+00   1.595621e-01  -7.304692e-02  -2.989139e-01  -8.246989e-01  -2.989139e-01  -8.246989e-01   1.595621e-01  -7.304692e-02
  6.198400e+00   1.554569e-01  -7.894131e-02  -3.209239e-01  -8.165056e-01  -3.209239e-01  -8.165056e-01   1.554569e-01  -7.894131e-02
  6.208300e+00   1.512095e-01  -8.467448e-02  -3.426822e-01  -8.077177e-01  -3.426822e-01  -8.077177e-01   1.512095e-01  -8.467448e-02
  6.218200e+00   1.468250e-01  -9.024268e-02  -3.641728e-01  -7.983442e-01  -3.641728e-01  -7.983442e-01   1.468250e-01  -9.024268e-02
  6.228100e+00   1.423086e-01  -9.564227e-02  -3.853798e-01  -7.883944e-01  -3.853798e-01  -7.883944e-01   1.423086e-01  -9.564227e-02
  6.238000e+00   1.376657e-01  -1.008698e-01  -4.062878e-01  -7.778778e-01  -4.062878e-01  -7.778778e-01   1.376657e-01  -1.008698e-01
  6.247900e+00   1.329020e-01  -1.059218e-01  -4.268819e-01  -7.668048e-01  -4.268819e-01  -7.668048e-01   1.329020e-01  -1.059218e-01
  6.257800e+00   1.280230e-01  -1.107951e-01  -4.471473e-01  -7.551858e-01  -4.471473e-01  -7.551858e-01   1.280230e-01  -1.107951e-01
  6.267700e+00   1.230345e-01  -1.154867e-01  -4.670699e-01  -7.430317e-01  -4.670699e-01  -7.430317e-01   1.230345e-01  -1.154867e-01
  6.277600e+00   1.179425e-01  -1.199938e-01  -4.866358e-01  -7.303537e-01  -4.866358e-01  -7.303537e-01   1.179425e-01  -1.199938e-01
  6.287500e+00   1.127529e-01  -1.243135e-01  -5.058316e-01  -7.171635e-01  -5.058316e-01  -7.171635e-01   1.127529e-01  -1.243135e-01
  6.297400e+00   1.074720e-01  -1.284433e-01  -5.246443e-01  -7.034729e-01  -5.246443e-01  -7.034729e-01   1.074720e-01  -1.284433e-01
  6.307300e+00   1.021060e-01  -1.323811e-01  -5.430614e-01  -6.892942e-01  -5.430614e-01  -6.892942e-01   1.021060e-01  -1.323811e-01
  6.317200e+00   9.666115e-02  -1.361245e-01  -5.610707e-01  -6.746398e-01  -5.610707e-01  -6.746398e-01   9.666115e-02  -1.361245e-01
  6.327100e+00   9.114399e-02  -1.396716e-01  -5.786606e-01  -6.595225e-01  -5.786606e-01  -6.595225e-01   9.114399e-02  -1.396716e-01
  6.337000e+00   8.556105e-02  -1.430208e-01  -5.958198e-01  -6.439552e-01  -5.958198e-01  -6.439552e-01   8.556105e-02  -1.430208e-01
  6.346900e+00   7.991893e-02  -1.461705e-01  -6.125377e-01  -6.279514e-01  -6.125377e-01  -6.279514e-01   7.991893e-02  -1.461705e-01
  6.356800e+00   7.422431e-02  -1.491194e-01  -6.288038e-01  -6.115242e-01  -6.288038e-01  -6.115242e-01   7.422431e-02  -1.491194e-01
  6.366700e+00   6.848395e-02  -1.518664e-01  -6.446082e-01  -5.946875e-01  -6.446082e-01  -5.946875e-01   6.848395e-02  -1.518664e-01
  6.376600e+00   6.270465e-02  -1.544107e-01  -6.599416e-01  -5.774549e-01  -6.599416e-01  -5.774549e-01   6.270465e-02  -1.544107e-01
  6.386500e+00   5.689327e-02  -1.567518e-01  -6.747950e-01  -5.598405e-01  -6.747950e-01  -5.598405e-01   5.689327e-02  -1.567518e-01
  6.396400e+00   5.105669e-02  -1.588892e-01  -6.891598e-01  -5.418584e-01  -6.891598e-01  -5.418584e-01   5.105669e-02  -1.588892e-01
  6.406300e+00   4.520183e-02  -1.608228e-01  -7.030280e-01  -5.235227e-01  -7.030280e-01  -5.235227e-01   4.520183e-02  -1.608228e-01
  6.416200e+00   3.933562e-02  -1.625527e-01  -7.163919e-01  -5.048479e-01  -7.163919e-01  -5.048479e-01   3.933562e-02  -1.625527e-01
  6.426100e+00   3.346500e-02  -1.640793e-01  -7.292443e-01  -4.858483e-01  -7.292443e-01  -4.858483e-01   3.346500e-02  -1.640793e-01
  6.436000e+00   2.759691e-02  -1.654032e-01  -7.415785e-01  -4.665385e-01  -7.415785e-01  -4.665385e-01   2.759691e-02  -1.654032e-01
  6.445900e+00   2.173828e-02  -1.665252e-01  -7.533882e-01  -4.469330e-01  -7.533882e-01  -4.469330e-01   2.173828e-02  -1.665252e-01
  6.455800e+00   1.589600e-02  -1.674466e-01  -7.646674e-01  -4.270465e-01  -7.646674e-01  -4.270465e-01   1.589600e-02  -1.674466e-01
  6.465700e+00   1.007696e-02  -1.681686e-01  -7.754106e-01  -4.068936e-01  -7.754106e-01  -4.068936e-01   1.007696e-02  -1.681686e-01
  6.475600e+00   4.287981e-03  -1.686928e-01  -7.856127e-01  -3.864889e-01  -7.856127e-01  -3.864889e-01   4.287981e-03  -1.686928e-01
  6.485500e+00  -1.464168e-03  -1.690212e-01  -7.952691e-01  -3.658473e-01  -7.952691e-01  -3.658473e-01  -1.464168e-03  -1.690212e-01
  6.495400e+00  -7.172774e-03  -1.691557e-01  -8.043756e-01  -3.449834e-01  -8.043756e-01  -3.449834e-01  -7.172774e-03  -1.691557e-01
  6.505300e+00  -1.283120e-02  -1.690989e-01  -8.129281e-01  -3.239118e-01  -8.129281e-01  -3.239118e-01  -1.283120e-02  -1.690989e-01
  6.515200e+00  -1.843289e-02  -1.688533e-01  -8.209232e-01  -3.026473e-01  -8.209232e-01  -3.026473e-01  -1.843289e-02  -1.688533e-01
  6.525100e+00  -2.397139e-02  -1.684216e-01  -8.283578e-01  -2.812045e-01  -8.283578e-01  -2.812045e-01  -2.397139e-02  -1.684216e-01
  6.535000e+00  -2.944034e-02  -1.678071e-01  -8.352291e-01  -2.595981e-01  -8.352291e-01  -2.595981e-01  -2.944034e-02  -1.678071e-01
  6.544900e+00  -3.483350e-02  -1.670131e-01  -8.415347e-01  -2.378426e-01  -8.415347e-01  -2.378426e-01  -3.483350e-02  -1.670131e-01
  6.554800e+00  -4.014475e-02  -1.660430e-01  -8.472725e-01  -2.159524e-01  -8.472725e-01  -2.159524e-01  -4.014475e-02  -1.660430e-01
  6.564700e+00  -4.536811e-02  -1.649006e-01  -8.524408e-01  -1.939422e-01  -8.524408e-01  -1.939422e-01  -4.536811e-02  -1.649006e-01
  6.574600e+00  -5.049773e-02  -1.635901e-01  -8.570382e-01  -1.718263e-01  -8.570382e-01  -1.718263e-01  -5.049773e-02  -1.635901e-01
  6.584500e+00  -5.552792e-02  -1.621155e-01  -8.610637e-01  -1.496191e-01  -8.610637e-01  -1.496191e-01  -5.552792e-02  -1.621155e-01
  6.594400e+00  -6.045315e-02  -1.604813e-01  -8.645165e-01  -1.273348e-01  -8.645165e-01  -1.273348e-01  -6.045315e-02  -1.604813e-01
  6.604300e+00  -6.526805e-02  -1.586922e-01  -8.673961e-01  -1.049877e-01  -8.673961e-01  -1.049877e-01  -6.526805e-02  -1.586922e-01
  6.614200e+00  -6.996745e-02  -1.567529e-01  -8.697026e-01  -8.259184e-02  -8.697026e-01  -8.259184e-02  -6.996745e-02  -1.567529e-01
  6.624100e+00  -7.454633e-02  -1.546686e-01  -8.714360e-01  -6.016134e-02  -8.714360e-01  -6.016134e-02  -7.454633e-02  -1.546686e-01
  6.634000e+00  -7.899989e-02  -1.524445e-01  -8.725968e-01  -3.771016e-02  -8.725968e-01  -3.771016e-02  -7.899989e-02  -1.524445e-01
  6.643900e+00  -8.332352e-02  -1.500859e-01  -8.731857e-01  -1.525218e-02  -8.731857e-01  -1.525218e-02  -8.332352e-02  -1.500859e-01
  6.653800e+00  -8.751284e-02  -1.475984e-01  -8.732038e-01   7.198783e-03  -8.732038e-01   7.198783e-03  -8.751284e-02  -1.475984e-01
  6.663700e+00  -9.156366e-02  -1.449878e-01  -8.726524e-01   2.962901e-02  -8.726524e-01   2.962901e-02  -9.156366e-02  -1.449878e-01
  6.673600e+00  -9.547202e-02  -1.422599e-01  -8.715331e-01   5.202485e-02  -8.715331e-01   5.202485e-02  -9.547202e-02  -1.422599e-01
  6.683500e+00  -9.923420e-02  -1.394209e-01  -8.698477e-01   7.437278e-02  -8.698477e-01   7.437278e-02  -9.923420e-02  -1.394209e-01
  6.693400e+00  -1.028467e-01  -1.364768e-01  -8.675982e-01   9.665931e-02  -8.675982e-01   9.665931e-02  -1.028467e-01  -1.364768e-01
  6.703300e+00  -1.063063e-01  -1.334341e-01  -8.647872e-01   1.188711e-01  -8.647872e-01   1.188711e-01  -1.063063e-01  -1.334341e-01
  6.713200e+00  -1.096100e-01  -1.302991e-01  -8.614170e-01   1.409948e-01  -8.614170e-01   1.409948e-01  -1.096100e-01  -1.302991e-01
  6.723100e+00  -1.127550e-01  -1.270784e-01  -8.574907e-01   1.630173e-01  -8.574907e-01   1.630173e-01  -1.127550e-01  -1.270784e-01
  6.733000e+00  -1.157389e-01  -1.237787e-01  -8.530114e-01   1.849254e-01  -8.530114e-01   1.849254e-01  -1.157389e-01  -1.237787e-01
  6.742900e+00  -1.185594e-01  -1.204066e-01  -8.479823e-01   2.067061e-01  -8.479823e-01   2.067061e-01  -1.185594e-01  -1.204066e-01
  6.752800e+00  -1.212146e-01  -1.169691e-01  -8.424071e-01   2.283465e-01  -8.424071e-01   2.283465e-01  -1.212146e-01  -1.169691e-01
  6.762700e+00  -1.237028e-01  -1.134731e-01  -8.362897e-01   2.498337e-01  -8.362897e-01   2.498337e-01  -1.237028e-01  -1.134731e-01
  6.772600e+00  -1.260226e-01  -1.099254e-01  -8.296341e-01   2.711551e-01  -8.296341e-01   2.711551e-01  -1.260226e-01  -1.099254e-01
  6.782500e+00  -1.281729e-01  -1.063332e-01  -8.224447e-01   2.922978e-01  -8.224447e-01   2.922978e-01  -1.281729e-01  -1.063332e-01
  6.792400e+00  -1.301529e-01  -1.027034e-01  -8.147260e-01   3.132494e-01  -8.147260e-01   3.132494e-01  -1.301529e-01  -1.027034e-01
  6.802300e+00  -1.319619e-01  -9.904320e-02  -8.064828e-01   3.339973e-01  -8.064828e-01   3.339973e-01  -1.319619e-01  -9.904320e-02
  6.812200e+00  -1.335998e-01  -9.535963e-02  -7.977203e-01   3.545292e-01  -7.977203e-01   3.545292e-01  -1.335998e-01  -9.535963e-02
  6.822100e+00  -1.350666e-01  -9.165981e-02  -7.884437e-01   3.748327e-01  -7.884437e-01   3.748327e-01  -1.350666e-01  -9.165981e-02
  6.832000e+00  -1.363625e-01  -8.795082e-02  -7.786587e-01   3.948957e-01  -7.786587e-01   3.948957e-01  -1.363625e-01  -8.795082e-02
  6.841900e+00  -1.374882e-01  -8.423974e-02  -7.683708e-01   4.147061e-01  -7.683708e-01   4.147061e-01  -1.374882e-01  -8.423974e-02
  6.851800e+00  -1.384446e-01  -8.053362e-02  -7.575864e-01   4.342518e-01  -7.575864e-01   4.342518e-01  -1.384446e-01  -8.053362e-02
  6.861700e+00  -1.392329e-01  -7.683945e-02  -7.463115e-01   4.535210e-01  -7.463115e-01   4.535210e-01  -1.392329e-01  -7.683945e-02
  6.871600e+00  -1.398546e-01  -7.316416e-02  -7.345529e-01   4.725017e-01  -7.345529e-01   4.725017e-01  -1.398546e-01  -7.316416e-02
  6.881500e+00  -1.403114e-01  -6.951462e-02  -7.223172e-01   4.911825e-01  -7.223172e-01   4.911825e-01  -1.403114e-01  -6.951462e-02
  6.891400e+00  -1.406054e-01  -6.589762e-02  -7.096115e-01   5.095516e-01  -7.096115e-01   5.095516e-01  -1.406054e-01  -6.589762e-02
  6.901300e+00  -1.407389e-01  -6.231985e-02  -6.964433e-01   5.275976e-01  -6.964433e-01   5.275976e-01  -1.407389e-01  -6.231985e-02
  6.911200e+00  -1.407146e-01  -5.878788e-02  -6.828199e-01   5.453092e-01  -6.828199e-01   5.453092e-01  -1.407146e-01  -5.878788e-02
  6.921100e+00  -1.405354e-01  -5.530818e-02  -6.687494e-01   5.626752e-01  -6.687494e-01   5.626752e-01  -1.405354e-01  -5.530818e-02
  6.931000e+00  -1.402044e-01  -5.188708e-02  -6.542397e-01   5.796844e-01  -6.542397e-01   5.796844e-01  -1.402044e-01  -5.188708e-02
  6.940900e+00  -1.397251e-01  -4.853074e-02  -6.392993e-01   5.963259e-01  -6.392993e-01   5.963259e-01  -1.397251e-01  -4.853074e-02
  6.950800e+00  -1.391012e-01  -4.524520e-02  -6.239369e-01   6.125889e-01  -6.239369e-01   6.125889e-01  -1.391012e-01  -4.524520e-02
  6.960700e+00  -1.383366e-01  -4.203629e-02  -6.081612e-01   6.284628e-01  -6.081612e-01   6.284628e-01  -1.383366e-01  -4.203629e-02
  6.970600e+00  -1.374357e-01  -3.890968e-02  -5.919815e-01   6.439370e-01  -5.919815e-01   6.439370e-01  -1.374357e-01  -3.890968e-02
  6.980500e+00  -1.364027e-01  -3.587085e-02  -5.754074e-01   6.590012e-01  -5.754074e-01   6.590012e-01  -1.364027e-01  -3.587085e-02
  6.990400e+00  -1.352425e-01  -3.292504e-02  -5.584484e-01   6.736453e-01  -5.584484e-01   6.736453e-01  -1.352425e-01  -3.292504e-02
  7.000300e+00  -1.339598e-01  -3.007730e-02  -5.411146e-01   6.878593e-01  -5.411146e-01   6.878593e-01  -1.339598e-01  -3.007730e-02
  7.010200e+00  -1.325600e-01  -2.733245e-02  -5.234163e-01   7.016333e-01  -5.234163e-01   7.016333e-01  -1.325600e-01  -2.733245e-02
  7.020100e+00  -1.310482e-01  -2.469504e-02  -5.053640e-01   7.149579e-01  -5.053640e-01   7.149579e-01  -1.310482e-01  -2.469504e-02
  7.030000e+00  -1.294300e-01  -2.216939e-02  -4.869687e-01   7.278235e-01  -4.869687e-01   7.278235e-01  -1.294300e-01  -2.216939e-02
  7.039900e+00  -1.277112e-01  -1.975957e-02  -4.682413e-01   7.402210e-01  -4.682413e-01   7.402210e-01  -1.277112e-01  -1.975957e-02
  7.049800e+00  -1.258975e-01  -1.746935e-02  -4.491934e-01   7.521416e-01  -4.491934e-01   7.521416e-01  -1.258975e-01  -1.746935e-02
  7.059700e+00  -1.239950e-01  -1.530223e-02  -4.298365e-01   7.635764e-01  -4.298365e-01   7.635764e-01  -1.239950e-01  -1.530223e-02
  7.069600e+00  -1.220100e-01  -1.326145e-02  -4.101827e-01   7.745171e-01  -4.101827e-01   7.745171e-01  -1.220100e-01  -1.326145e-02
  7.079500e+00  -1.199486e-01  -1.134990e-02  -3.902440e-01   7.849554e-01  -3.902440e-01   7.849554e-01  -1.199486e-01  -1.134990e-02
  7.089400e+00  -1.178173e-01  -9.570224e-03  -3.700330e-01   7.948834e-01  -3.700330e-01   7.948834e-01  -1.178173e-01  -9.570224e-03
  7.099300e+00  -1.156226e-01  -7.924720e-03  -3.495623e-01   8.042935e-01  -3.495623e-01   8.042935e-01  -1.156226e-01  -7.924720e-03
  7.109200e+00  -1.133712e-01  -6.415385e-03  -3.288451e-01   8.131784e-01  -3.288451e-01   8.131784e-01  -1.133712e-01  -6.415385e-03
  7.119100e+00  -1.110696e-01  -5.043900e-03  -3.078944e-01   8.215309e-01  -3.078944e-01   8.215309e-01  -1.110696e-01  -5.043900e-03
  7.129000e+00  -1.087246e-01  -3.811619e-03  -2.867239e-01   8.293445e-01  -2.867239e-01   8.293445e-01  -1.087246e-01  -3.811619e-03
  7.138900e+00  -1.063430e-01  -2.719576e-03  -2.653472e-01   8.366127e-01  -2.653472e-01   8.366127e-01  -1.063430e-01  -2.719576e-03
  7.148800e+00  -1.039315e-01  -1.768476e-03  -2.437782e-01   8.433294e-01  -2.437782e-01   8.433294e-01  -1.039315e-01  -1.768476e-03
  7.158700e+00  -1.014969e-01  -9.586993e-04  -2.220312e-01   8.494891e-01  -2.220312e-01   8.494891e-01  -1.014969e-01  -9.586993e-04
  7.168600e+00  -9.904587e-02  -2.902987e-04  -2.001205e-01   8.550862e-01  -2.001205e-01   8.550862e-01  -9.904587e-02  -2.902987e-04
  7.178500e+00  -9.658522e-02   2.369978e-04  -1.780607e-01   8.601160e-01  -1.780607e-01   8.601160e-01  -9.658522e-02   2.369978e-04
  7.188400e+00  -9.412157e-02   6.237846e-04  -1.558666e-01   8.645737e-01  -1.558666e-01   8.645737e-01  -9.412157e-02   6.237846e-04
  7.198300e+00  -9.166154e-02   8.709756e-04  -1.335531e-01   8.684554e-01  -1.335531e-01   8.684554e-01  -9.166154e-02   8.709756e-04
  7.208200e+00  -8.921161e-02   9.797992e-04  -1.111355e-01   8.717571e-01  -1.111355e-01   8.717571e-01  -8.921161e-02   9.797992e-04
  7.218100e+00  -8.677820e-02   9.517926e-04  -8.862898e-02   8.744755e-01  -8.862898e-02   8.744755e-01  -8.677820e-02   9.517926e-04
  7.228000e+00  -8.436760e-02   7.887954e-04  -6.604899e-02   8.766078e-01  -6.604899e-02   8.766078e-01  -8.436760e-02   7.887954e-04
  7.237900e+00  -8.198594e-02   4.929418e-04  -4.341112e-02   8.781514e-01  -4.341112e-02   8.781514e-01  -8.198594e-02   4.929418e-04
  7.247800e+00  -7.963923e-02   6.665121e-05  -2.073105e-02   8.791043e-01  -2.073105e-02   8.791043e-01  -7.963923e-02   6.665121e-05
  7.257700e+00  -7.733329e-02  -4.873808e-04   1.975422e-03   8.794649e-01   1.975422e-03   8.794649e-01  -7.733329e-02  -4.873808e-04
  7.267600e+00  -7.507378e-02  -1.166194e-03   2.469243e-02   8.792320e-01   2.469243e-02   8.792320e-01  -7.507378e-02  -1.166194e-03
  7.277500e+00  -7.286613e-02  -1.966575e-03   4.740402e-02   8.784051e-01   4.740402e-02   8.784051e-01  -7.286613e-02  -1.966575e-03
  7.287400e+00  -7.071559e-02  -2.885070e-03   7.009420e-02   8.769837e-01   7.009420e-02   8.769837e-01  -7.071559e-02  -2.885070e-03
  7.297300e+00  -6.862718e-02  -3.918000e-03   9.274693e-02   8.749683e-01   9.274693e-02   8.749683e-01  -6.862718e-02  -3.918000e-03
  7.307200e+00  -6.660567e-02  -5.061471e-03   1.153462e-01   8.723595e-01   1.153462e-01   8.723595e-01  -6.660567e-02  -5.061471e-03
  7.317100e+00  -6.465562e-02  -6.311394e-03   1.378759e-01   8.691585e-01   1.378759e-01   8.691585e-01  -6.465562e-02  -6.311394e-03
  7.327000e+00  -6.278131e-02  -7.663498e-03   1.603200e-01   8.653671e-01   1.603200e-01   8.653671e-01  -6.278131e-02  -7.663498e-03
  7.336900e+00  -6.098676e-02  -9.113350e-03   1.826625e-01   8.609873e-01   1.826625e-01   8.609873e-01  -6.098676e-02  -9.113350e-03
  7.346800e+00  -5.927572e-02  -1.065636e-02   2.048874e-01   8.560219e-01   2.048874e-01   8.560219e-01  -5.927572e-02  -1.065636e-02
  7.356700e+00  -5.765169e-02  -1.228783e-02   2.269790e-01   8.504738e-01   2.269790e-01   8.504738e-01  -5.765169e-02  -1.228783e-02
  7.366600e+00  -5.611785e-02  -1.400292e-02   2.489213e-01   8.443468e-01   2.489213e-01   8.443468e-01  -5.611785e-02  -1.400292e-02
  7.376500e+00  -5.467712e-02  -1.579672e-02   2.706988e-01   8.376448e-01   2.706988e-01   8.376448e-01  -5.467712e-02  -1.579672e-02
  7.386400e+00  -5.333214e-02  -1.766423e-02   2.922958e-01   8.303723e-01   2.922958e-01   8.303723e-01  -5.333214e-02  -1.766423e-02
  7.396300e+00  -5.208525e-02  -1.960039e-02   3.136969e-01   8.225344e-01   3.136969e-01   8.225344e-01  -5.208525e-02  -1.960039e-02
  7.406200e+00  -5.093850e-02  -2.160012e-02   3.348868e-01   8.141364e-01   3.348868e-01   8.141364e-01  -5.093850e-02  -2.160012e-02
  7.416100e+00  -4.989366e-02  -2.365830e-02   3.558506e-01   8.051842e-01   3.558506e-01   8.051842e-01  -4.989366e-02  -2.365830e-02
  7.426000e+00  -4.895223e-02  -2.576981e-02   3.765731e-01   7.956841e-01   3.765731e-01   7.956841e-01  -4.895223e-02  -2.576981e-02
  7.435900e+00  -4.811541e-02  -2.792955e-02   3.970398e-01   7.856429e-01   3.970398e-01   7.856429e-01  -4.811541e-02  -2.792955e-02
  7.445800e+00  -4.738414e-02  -3.013244e-02   4.172361e-01   7.750676e-01   4.172361e-01   7.750676e-01  -4.738414e-02  -3.013244e-02
  7.455700e+00  -4.675909e-02  -3.237346e-02   4.371478e-01   7.639658e-01   4.371478e-01   7.639658e-01  -4.675909e-02  -3.237346e-02
  7.465600e+00  -4.624067e-02  -3.464764e-02   4.567609e-01   7.523455e-01   4.567609e-01   7.523455e-01  -4.624067e-02  -3.464764e-02
  7.475500e+00  -4.582904e-02  -3.695012e-02   4.760616e-01   7.402151e-01   4.760616e-01   7.402151e-01  -4.582904e-02  -3.695012e-02
  7.485400e+00  -4.552413e-02  -3.927608e-02   4.950364e-01   7.275832e-01   4.950364e-01   7.275832e-01  -4.552413e-02  -3.927608e-02
  7.495300e+00  -4.532562e-02  -4.162085e-02   5.136721e-01   7.144589e-01   5.136721e-01   7.144589e-01  -4.532562e-02  -4.162085e-02
  7.505200e+00  -4.523299e-02  -4.397987e-02   5.319558e-01   7.008516e-01   5.319558e-01   7.008516e-01  -4.523299e-02  -4.397987e-02
  7.515100e+00  -4.524551e-02  -4.634871e-02   5.498747e-01   6.867712e-01   5.498747e-01   6.867712e-01  -4.524551e-02  -4.634871e-02
  7.525000e+00  -4.536225e-02  -4.872306e-02   5.674167e-01   6.722276e-01   5.674167e-01   6.722276e-01  -4.536225e-02  -4.872306e-02
  7.534900e+00  -4.558210e-02  -5.109879e-02   5.845696e-01   6.572314e-01   5.845696e-01   6.572314e-01  -4.558210e-02  -5.109879e-02
  7.544800e+00  -4.590379e-02  -5.347192e-02   6.013218e-01   6.417931e-01   6.013218e-01   6.417931e-01  -4.590379e-02  -5.347192e-02
  7.554700e+00  -4.632591e-02  -5.583862e-02   6.176618e-01   6.259239e-01   6.176618e-01   6.259239e-01  -4.632591e-02  -5.583862e-02
  7.564600e+00  -4.684689e-02  -5.819527e-02   6.335786e-01   6.096350e-01   6.335786e-01   6.096350e-01  -4.684689e-02  -5.819527e-02
  7.574500e+00  -4.746507e-02  -6.053838e-02   6.490615e-01   5.929379e-01   6.490615e-01   5.929379e-01  -4.746507e-02  -6.053838e-02
  7.584400e+00  -4.817867e-02  -6.286467e-02   6.641001e-01   5.758444e-01   6.641001e-01   5.758444e-01  -4.817867e-02  -6.286467e-02
  7.594300e+00  -4.898581e-02  -6.517103e-02   6.786843e-01   5.583665e-01   6.786843e-01   5.583665e-01  -4.898581e-02  -6.517103e-02
  7.604200e+00  -4.988456e-02  -6.745455e-02   6.928044e-01   5.405166e-01   6.928044e-01   5.405166e-01  -4.988456e-02  -6.745455e-02
  7.614100e+00  -5.087291e-02  -6.971248e-02   7.064511e-01   5.223070e-01   7.064511e-01   5.223070e-01  -5.087291e-02  -6.971248e-02
  7.624000e+00  -5.194881e-02  -7.194226e-02   7.196152e-01   5.037505e-01   7.196152e-01   5.037505e-01  -5.194881e-02  -7.194226e-02
  7.633900e+00  -5.311020e-02  -7.414151e-02   7.322882e-01   4.848600e-01   7.322882e-01   4.848600e-01  -5.311020e-02  -7.414151e-02
  7.643800e+00  -5.435498e-02  -7.630802e-02   7.444617e-01   4.656485e-01   7.444617e-01   4.656485e-01  -5.435498e-02  -7.630802e-02
  7.653700e+00  -5.568107e-02  -7.843977e-02   7.561276e-01   4.461292e-01   7.561276e-01   4.461292e-01  -5.568107e-02  -7.843977e-02
  7.663600e+00  -5.708637e-02  -8.053488e-02   7.672783e-01   4.263158e-01   7.672783e-01   4.263158e-01  -5.708637e-02  -8.053488e-02
  7.673500e+00  -5.856885e-02  -8.259163e-02   7.779066e-01   4.062216e-01   7.779066e-01   4.062216e-01  -5.856885e-02  -8.259163e-02
  7.683400e+00  -6.012648e-02  -8.460847e-02   7.880055e-01   3.858605e-01   7.880055e-01   3.858605e-01  -6.012648e-02  -8.460847e-02
  7.693300e+00  -6.175728e-02  -8.658397e-02   7.975683e-01   3.652464e-01   7.975683e-01   3.652464e-01  -6.175728e-02  -8.658397e-02
  7.703200e+00  -6.345934e-02  -8.851684e-02   8.065887e-01   3.443933e-01   8.065887e-01   3.443933e-01  -6.345934e-02  -8.851684e-02
  7.713100e+00  -6.523081e-02  -9.040591e-02   8.150610e-01   3.233154e-01   8.150610e-01   3.233154e-01  -6.523081e-02  -9.040591e-02
  7.723000e+00  -6.706990e-02  -9.225013e-02   8.229795e-01   3.020270e-01   8.229795e-01   3.020270e-01  -6.706990e-02  -9.225013e-02
  7.732900e+00  -6.897492e-02  -9.404855e-02   8.303390e-01   2.805425e-01   8.303390e-01   2.805425e-01  -6.897492e-02  -9.404855e-02
  7.742800e+00  -7.094426e-02  -9.580029e-02   8.371346e-01   2.588766e-01   8.371346e-01   2.588766e-01  -7.094426e-02  -9.580029e-02
  7.752700e+00  -7.297639e-02  -9.750458e-02   8.433618e-01   2.370439e-01   8.433618e-01   2.370439e-01  -7.297639e-02  -9.750458e-02
  7.762600e+00  -7.506990e-02  -9.916069e-02   8.490165e-01   2.150592e-01   8.490165e-01   2.150592e-01  -7.506990e-02  -9.916069e-02
  7.772500e+00  -7.722345e-02  -1.007680e-01   8.540948e-01   1.929374e-01   8.540948e-01   1.929374e-01  -7.722345e-02  -1.007680e-01
  7.782400e+00  -7.943582e-02  -1.023258e-01   8.585934e-01   1.706934e-01   8.585934e-01   1.706934e-01  -7.943582e-02  -1.023258e-01
  7.792300e+00  -8.170589e-02  -1.038335e-01   8.625091e-01   1.483424e-01   8.625091e-01   1.483424e-01  -8.170589e-02  -1.038335e-01
  7.802200e+00  -8.403263e-02  -1.052906e-01   8.658392e-01   1.258995e-01   8.658392e-01   1.258995e-01  -8.403263e-02  -1.052906e-01
  7.812100e+00  -8.641512e-02  -1.066965e-01   8.685814e-01   1.033799e-01   8.685814e-01   1.033799e-01  -8.641512e-02  -1.066965e-01
  7.822000e+00  -8.885254e-02  -1.080506e-01   8.707337e-01   8.079916e-02   8.707337e-01   8.079916e-02  -8.885254e-02  -1.080506e-01
  7.831900e+00  -9.134415e-02  -1.093524e-01   8.722945e-01   5.817251e-02   8.722945e-01   5.817251e-02  -9.134415e-02  -1.093524e-01
  7.841800e+00  -9.388932e-02  -1.106011e-01   8.732627e-01   3.551548e-02   8.732627e-01   3.551548e-02  -9.388932e-02  -1.106011e-01
  7.851700e+00  -9.648750e-02  -1.117962e-01   8.736373e-01   1.284361e-02   8.736373e-01   1.284361e-02  -9.648750e-02  -1.117962e-01
  7.861600e+00  -9.913821e-02  -1.129369e-01   8.734180e-01  -9.827528e-03   8.734180e-01  -9.827528e-03  -9.913821e-02  -1.129369e-01
  7.871500e+00  -1.018410e-01  -1.140224e-01   8.726047e-01  -3.248229e-02   8.726047e-01  -3.248229e-02  -1.018410e-01  -1.140224e-01
  7.881400e+00  -1.045957e-01  -1.150520e-01   8.711978e-01  -5.510501e-02   8.711978e-01  -5.510501e-02  -1.045957e-01  -1.150520e-01
  7.891300e+00  -1.074019e-01  -1.160246e-01   8.691981e-01  -7.767999e-02   8.691981e-01  -7.767999e-02  -1.074019e-01  -1.160246e-01
  7.901200e+00  -1.102593e-01  -1.169394e-01   8.666068e-01  -1.001915e-01   8.666068e-01  -1.001915e-01  -1.102593e-01  -1.169394e-01
  7.911100e+00  -1.131679e-01  -1.177951e-01   8.634256e-01  -1.226239e-01   8.634256e-01  -1.226239e-01  -1.131679e-01  -1.177951e-01
  7.921000e+00  -1.161275e-01  -1.185907e-01   8.596563e-01  -1.449614e-01   8.596563e-01  -1.449614e-01  -1.161275e-01  -1.185907e-01
  7.930900e+00  -1.191378e-01  -1.193249e-01   8.553016e-01  -1.671883e-01   8.553016e-01  -1.671883e-01  -1.191378e-01  -1.193249e-01
  7.940800e+00  -1.221989e-01  -1.199962e-01   8.503644e-01  -1.892890e-01   8.503644e-01  -1.892890e-01  -1.221989e-01  -1.199962e-01
  7.950700e+00  -1.253106e-01  -1.206032e-01   8.448479e-01  -2.112478e-01   8.448479e-01  -2.112478e-01  -1.253106e-01  -1.206032e-01
  7.960600e+00  -1.284728e-01  -1.211442e-01   8.387560e-01  -2.330492e-01   8.387560e-01  -2.330492e-01  -1.284728e-01  -1.211442e-01
  7.970500e+00  -1.316852e-01  -1.216176e-01   8.320929e-01  -2.546777e-01   8.320929e-01  -2.546777e-01  -1.316852e-01  -1.216176e-01
  7.980400e+00  -1.349477e-01  -1.220214e-01   8.248633e-01  -2.761178e-01   8.248633e-01  -2.761178e-01  -1.349477e-01  -1.220214e-01
  7.990300e+00  -1.382602e-01  -1.223538e-01   8.170722e-01  -2.973543e-01   8.170722e-01  -2.973543e-01  -1.382602e-01  -1.223538e-01
  8.000200e+00  -1.416222e-01  -1.226127e-01   8.087254e-01  -3.183720e-01   8.087254e-01  -3.183720e-01  -1.416222e-01  -1.226127e-01
  8.010100e+00  -1.450334e-01  -1.227959e-01   7.998289e-01  -3.391557e-01   7.998289e-01  -3.391557e-01  -1.450334e-01  -1.227959e-01
  8.020000e+00  -1.484935e-01  -1.229011e-01   7.903890e-01  -3.596906e-01   7.903890e-01  -3.596906e-01  -1.484935e-01  -1.229011e-01
  8.029900e+00  -1.520018e-01  -1.229260e-01   7.804127e-01  -3.799620e-01   7.804127e-01  -3.799620e-01  -1.520018e-01  -1.229260e-01
  8.039800e+00  -1.555577e-01  -1.228681e-01   7.699074e-01  -3.999552e-01   7.699074e-01  -3.999552e-01  -1.555577e-01  -1.228681e-01
  8.049700e+00  -1.591606e-01  -1.227247e-01   7.588810e-01  -4.196560e-01   7.588810e-01  -4.196560e-01  -1.591606e-01  -1.227247e-01
  8.059600e+00  -1.628095e-01  -1.224933e-01   7.473416e-01  -4.390501e-01   7.473416e-01  -4.390501e-01  -1.628095e-01  -1.224933e-01
  8.069500e+00  -1.665034e-01  -1.221710e-01   7.352979e-01  -4.581238e-01   7.352979e-01  -4.581238e-01  -1.665034e-01  -1.221710e-01
  8.079400e+00  -1.702414e-01  -1.217551e-01   7.227590e-01  -4.768633e-01   7.227590e-01  -4.768633e-01  -1.702414e-01  -1.217551e-01
  8.089300e+00  -1.740220e-01  -1.212426e-01   7.097345e-01  -4.952552e-01   7.097345e-01  -4.952552e-01  -1.740220e-01  -1.212426e-01
  8.099200e+00  -1.778439e-01  -1.206306e-01   6.962343e-01  -5.132865e-01   6.962343e-01  -5.132865e-01  -1.778439e-01  -1.206306e-01
  8.109100e+00  -1.817055e-01  -1.199161e-01   6.822686e-01  -5.309444e-01   6.822686e-01  -5.309444e-01  -1.817055e-01  -1.199161e-01
  8.119000e+00  -1.856051e-01  -1.190961e-01   6.678481e-01  -5.482164e-01   6.678481e-01  -5.482164e-01  -1.856051e-01  -1.190961e-01
  8.128900e+00  -1.895406e-01  -1.181675e-01   6.529840e-01  -5.650904e-01   6.529840e-01  -5.650904e-01  -1.895406e-01  -1.181675e-01
  8.138800e+00  -1.935102e-01  -1.171272e-01   6.376877e-01  -5.815546e-01   6.376877e-01  -5.815546e-01  -1.935102e-01  -1.171272e-01
  8.148700e+00  -1.975113e-01  -1.159721e-01   6.219710e-01  -5.975976e-01   6.219710e-01  -5.975976e-01  -1.975113e-01  -1.159721e-01
  8.158600e+00  -2.015417e-01  -1.146990e-01   6.058459e-01  -6.132084e-01   6.058459e-01  -6.132084e-01  -2.015417e-01  -1.146990e-01
  8.168500e+00  -2.055986e-01  -1.133050e-01   5.893248e-01  -6.283763e-01   5.893248e-01  -6.283763e-01  -2.055986e-01  -1.133050e-01
  8.178400e+00  -2.096792e-01  -1.117869e-01   5.724206e-01  -6.430910e-01   5.724206e-01  -6.430910e-01  -2.096792e-01  -1.117869e-01
  8.188300e+00  -2.137805e-01  -1.101417e-01   5.551462e-01  -6.573428e-01   5.551462e-01  -6.573428e-01  -2.137805e-01  -1.101417e-01
  8.198200e+00  -2.178992e-01  -1.083664e-01   5.375149e-01  -6.711222e-01   5.375149e-01  -6.711222e-01  -2.178992e-01  -1.083664e-01
  8.208100e+00  -2.220319e-01  -1.064581e-01   5.195402e-01  -6.844202e-01   5.195402e-01  -6.844202e-01  -2.220319e-01  -1.064581e-01
  8.218000e+00  -2.261750e-01  -1.044139e-01   5.012358e-01  -6.972284e-01   5.012358e-01  -6.972284e-01  -2.261750e-01  -1.044139e-01
  8.227900e+00  -2.303247e-01  -1.022311e-01   4.826158e-01  -7.095384e-01   4.826158e-01  -7.095384e-01  -2.303247e-01  -1.022311e-01
  8.237800e+00  -2.344769e-01  -9.990688e-02   4.636943e-01  -7.213429e-01   4.636943e-01  -7.213429e-01  -2.344769e-01  -9.990688e-02
  8.247700e+00  -2.386275e-01  -9.743874e-02   4.444855e-01  -7.326344e-01   4.444855e-01  -7.326344e-01  -2.386275e-01  -9.743874e-02
  8.257600e+00  -2.427721e-01  -9.482419e-02   4.250041e-01  -7.434063e-01   4.250041e-01  -7.434063e-01  -2.427721e-01  -9.482419e-02
  8.267500e+00  -2.469061e-01  -9.206085e-02   4.052645e-01  -7.536522e-01   4.052645e-01  -7.536522e-01  -2.469061e-01  -9.206085e-02
  8.277400e+00  -2.510248e-01  -8.914653e-02   3.852817e-01  -7.633664e-01   3.852817e-01  -7.633664e-01  -2.510248e-01  -8.914653e-02
  8.287300e+00  -2.551233e-01  -8.607912e-02   3.650703e-01  -7.725434e-01   3.650703e-01  -7.725434e-01  -2.551233e-01  -8.607912e-02
  8.297200e+00  -2.591965e-01  -8.285673e-02   3.446454e-01  -7.811784e-01   3.446454e-01  -7.811784e-01  -2.591965e-01  -8.285673e-02
  8.307100e+00  -2.632390e-01  -7.947758e-02   3.240219e-01  -7.892669e-01   3.240219e-01  -7.892669e-01  -2.632390e-01  -7.947758e-02
  8.317000e+00  -2.672457e-01  -7.594010e-02   3.032149e-01  -7.968047e-01   3.032149e-01  -7.968047e-01  -2.672457e-01  -7.594010e-02
  8.326900e+00  -2.712107e-01  -7.224287e-02   2.822394e-01  -8.037885e-01   2.822394e-01  -8.037885e-01  -2.712107e-01  -7.224287e-02
  8.336800e+00  -2.751286e-01  -6.838468e-02   2.611106e-01  -8.102150e-01   2.611106e-01  -8.102150e-01  -2.751286e-01  -6.838468e-02
  8.346700e+00  -2.789934e-01  -6.436453e-02   2.398436e-01  -8.160816e-01   2.398436e-01  -8.160816e-01  -2.789934e-01  -6.436453e-02
  8.356600e+00  -2.827991e-01  -6.018161e-02   2.184534e-01  -8.213860e-01   2.184534e-01  -8.213860e-01  -2.827991e-01  -6.018161e-02
  8.366500e+00  -2.865397e-01  -5.583532e-02   1.969551e-01  -8.261264e-01   1.969551e-01  -8.261264e-01  -2.865397e-01  -5.583532e-02
  8.376400e+00  -2.902090e-01  -5.132530e-02   1.753637e-01  -8.303013e-01   1.753637e-01  -8.303013e-01  -2.902090e-01  -5.132530e-02
  8.386300e+00  -2.938006e-01  -4.665140e-02   1.536942e-01  -8.339098e-01   1.536942e-01  -8.339098e-01  -2.938006e-01  -4.665140e-02
  8.396200e+00  -2.973081e-01  -4.181373e-02   1.319615e-01  -8.369512e-01   1.319615e-01  -8.369512e-01  -2.973081e-01  -4.181373e-02
  8.406100e+00  -3.007251e-01  -3.681263e-02   1.101803e-01  -8.394253e-01   1.101803e-01  -8.394253e-01  -3.007251e-01  -3.681263e-02
  8.416000e+00  -3.040450e-01  -3.164868e-02   8.836558e-02  -8.413324e-01   8.836558e-02  -8.413324e-01  -3.040450e-01  -3.164868e-02
  8.425900e+00  -3.072610e-01  -2.632272e-02   6.653183e-02  -8.426729e-01   6.653183e-02  -8.426729e-01  -3.072610e-01  -2.632272e-02
  8.435800e+00  -3.103666e-01  -2.083586e-02   4.469364e-02  -8.434478e-01   4.469364e-02  -8.434478e-01  -3.103666e-01  -2.083586e-02
  8.445700e+00  -3.133550e-01  -1.518946e-02   2.286544e-02  -8.436584e-01   2.286544e-02  -8.436584e-01  -3.133550e-01  -1.518946e-02
  8.455600e+00  -3.162194e-01  -9.385152e-03   1.061549e-03  -8.433062e-01   1.061549e-03  -8.433062e-01  -3.162194e-01  -9.385152e-03
  8.465500e+00  -3.189529e-01  -3.424850e-03  -2.070384e-02  -8.423933e-01  -2.070384e-02  -8.423933e-01  -3.189529e-01  -3.424850e-03
  8.475400e+00  -3.215487e-01   2.689264e-03  -4.241666e-02  -8.409219e-01  -4.241666e-02  -8.409219e-01  -3.215487e-01   2.689264e-03
  8.485300e+00  -3.240001e-01   8.954725e-03  -6.406299e-02  -8.388948e-01  -6.406299e-02  -8.388948e-01  -3.240001e-01   8.954725e-03
  8.495200e+00  -3.263000e-01   1.536879e-02  -8.562905e-02  -8.363147e-01  -8.562905e-02  -8.363147e-01  -3.263000e-01   1.536879e-02
  8.505100e+00  -3.284418e-01   2.192841e-02  -1.071012e-01  -8.331850e-01  -1.071012e-01  -8.331850e-01  -3.284418e-01   2.192841e-02
  8.515000e+00  -3.304186e-01   2.863027e-02  -1.284659e-01  -8.295092e-01  -1.284659e-01  -8.295092e-01  -3.304186e-01   2.863027e-02
  8.524900e+00  -3.322237e-01   3.547076e-02  -1.497099e-01  -8.252911e-01  -1.497099e-01  -8.252911e-01  -3.322237e-01   3.547076e-02
  8.534800e+00  -3.338503e-01   4.244597e-02  -1.708200e-01  -8.205349e-01  -1.708200e-01  -8.205349e-01  -3.338503e-01   4.244597e-02
  8.544700e+00  -3.352918e-01   4.955169e-02  -1.917831e-01  -8.152449e-01  -1.917831e-01  -8.152449e-01  -3.352918e-01   4.955169e-02
  8.554600e+00  -3.365417e-01   5.678344e-02  -2.125864e-01  -8.094259e-01  -2.125864e-01  -8.094259e-01  -3.365417e-01   5.678344e-02
  8.564500e+00  -3.375934e-01   6.413641e-02  -2.332171e-01  -8.030827e-01  -2.332171e-01  -8.030827e-01  -3.375934e-01   6.413641e-02
  8.574400e+00  -3.384405e-01   7.160553e-02  -2.536629e-01  -7.962205e-01  -2.536629e-01  -7.962205e-01  -3.384405e-01   7.160553e-02
  8.584300e+00  -3.390768e-01   7.918541e-02  -2.739112e-01  -7.888447e-01  -2.739112e-01  -7.888447e-01  -3.390768e-01   7.918541e-02
  8.594200e+00  -3.394961e-01   8.687039e-02  -2.939499e-01  -7.809612e-01  -2.939499e-01  -7.809612e-01  -3.394961e-01   8.687039e-02
  8.604100e+00  -3.396924e-01   9.465449e-02  -3.137669e-01  -7.725756e-01  -3.137669e-01  -7.725756e-01  -3.396924e-01   9.465449e-02
  8.614000e+00  -3.396599e-01   1.025315e-01  -3.333505e-01  -7.636943e-01  -3.333505e-01  -7.636943e-01  -3.396599e-01   1.025315e-01
  8.623900e+00  -3.393928e-01   1.104948e-01  -3.526888e-01  -7.543236e-01  -3.526888e-01  -7.543236e-01  -3.393928e-01   1.104948e-01
  8.633800e+00  -3.388856e-01   1.185376e-01  -3.717704e-01  -7.444701e-01  -3.717704e-01  -7.444701e-01  -3.388856e-01   1.185376e-01
  8.643700e+00  -3.381329e-01   1.266528e-01  -3.905840e-01  -7.341406e-01  -3.905840e-01  -7.341406e-01  -3.381329e-01   1.266528e-01
  8.653600e+00  -3.371297e-01   1.348330e-01  -4.091183e-01  -7.233422e-01  -4.091183e-01  -7.233422e-01  -3.371297e-01   1.348330e-01
  8.663500e+00  -3.358711e-01   1.430706e-01  -4.273624e-01  -7.120822e-01  -4.273624e-01  -7.120822e-01  -3.358711e-01   1.430706e-01
  8.673400e+00  -3.343522e-01   1.513576e-01  -4.453055e-01  -7.003680e-01  -4.453055e-01  -7.003680e-01  -3.343522e-01   1.513576e-01
  8.683300e+00  -3.325688e-01   1.596859e-01  -4.629368e-01  -6.882073e-01  -4.629368e-01  -6.882073e-01  -3.325688e-01   1.596859e-01
  8.693200e+00  -3.305166e-01   1.680471e-01  -4.802461e-01  -6.756080e-01  -4.802461e-01  -6.756080e-01  -3.305166e-01   1.680471e-01
  8.703100e+00  -3.281917e-01   1.764324e-01  -4.972230e-01  -6.625782e-01  -4.972230e-01  -6.625782e-01  -3.281917e-01   1.764324e-01
  8.713000e+00  -3.255904e-01   1.848330e-01  -5.138574e-01  -6.491261e-01  -5.138574e-01  -6.491261e-01  -3.255904e-01   1.848330e-01
  8.722900e+00  -3.227096e-01   1.932397e-01  -5.301393e-01  -6.352602e-01  -5.301393e-01  -6.352602e-01  -3.227096e-01   1.932397e-01
  8.732800e+00  -3.195460e-01   2.016432e-01  -5.460592e-01  -6.209892e-01  -5.460592e-01  -6.209892e-01  -3.195460e-01   2.016432e-01
  8.742700e+00  -3.160970e-01   2.100339e-01  -5.616074e-01  -6.063220e-01  -5.616074e-01  -6.063220e-01  -3.160970e-01   2.100339e-01
  8.752600e+00  -3.123603e-01   2.184021e-01  -5.767745e-01  -5.912674e-01  -5.767745e-01  -5.912674e-01  -3.123603e-01   2.184021e-01
  8.762500e+00  -3.083339e-01   2.267378e-01  -5.915516e-01  -5.758349e-01  -5.915516e-01  -5.758349e-01  -3.083339e-01   2.267378e-01
  8.772400e+00  -3.040159e-01   2.350310e-01  -6.059294e-01  -5.600337e-01  -6.059294e-01  -5.600337e-01  -3.040159e-01   2.350310e-01
  8.782300e+00  -2.994053e-01   2.432714e-01  -6.198994e-01  -5.438735e-01  -6.198994e-01  -5.438735e-01  -2.994053e-01   2.432714e-01
  8.792200e+00  -2.945009e-01   2.514486e-01  -6.334529e-01  -5.273640e-01  -6.334529e-01  -5.273640e-01  -2.945009e-01   2.514486e-01
  8.802100e+00  -2.893024e-01   2.595521e-01  -6.465815e-01  -5.105151e-01  -6.465815e-01  -5.105151e-01  -2.893024e-01   2.595521e-01
  8.812000e+00  -2.838095e-01   2.675712e-01  -6.592771e-01  -4.933368e-01  -6.592771e-01  -4.933368e-01  -2.838095e-01   2.675712e-01
  8.821900e+00  -2.780225e-01   2.754952e-01  -6.715316e-01  -4.758395e-01  -6.715316e-01  -4.758395e-01  -2.780225e-01   2.754952e-01
  8.831800e+00  -2.719421e-01   2.833133e-01  -6.833373e-01  -4.580336e-01  -6.833373e-01  -4.580336e-01  -2.719421e-01   2.833133e-01
  8.841700e+00  -2.655694e-01   2.910146e-01  -6.946866e-01  -4.399296e-01  -6.946866e-01  -4.399296e-01  -2.655694e-01   2.910146e-01
  8.851600e+00  -2.589059e-01   2.985883e-01  -7.055721e-01  -4.215383e-01  -7.055721e-01  -4.215383e-01  -2.589059e-01   2.985883e-01
  8.861500e+00  -2.519535e-01   3.060234e-01  -7.159866e-01  -4.028705e-01  -7.159866e-01  -4.028705e-01  -2.519535e-01   3.060234e-01
  8.871400e+00  -2.447146e-01   3.133089e-01  -7.259231e-01  -3.839374e-01  -7.259231e-01  -3.839374e-01  -2.447146e-01   3.133089e-01
  8.881300e+00  -2.371920e-01   3.204340e-01  -7.353749e-01  -3.647501e-01  -7.353749e-01  -3.647501e-01  -2.371920e-01   3.204340e-01
  8.891200e+00  -2.293891e-01   3.273877e-01  -7.443354e-01  -3.453199e-01  -7.443354e-01  -3.453199e-01  -2.293891e-01   3.273877e-01
  8.901100e+00  -2.213094e-01   3.341593e-01  -7.527983e-01  -3.256584e-01  -7.527983e-01  -3.256584e-01  -2.213094e-01   3.341593e-01
  8.911000e+00  -2.129571e-01   3.407379e-01  -7.607574e-01  -3.057772e-01  -7.607574e-01  -3.057772e-01  -2.129571e-01   3.407379e-01
  8.920900e+00  -2.043367e-01   3.471130e-01  -7.682067e-01  -2.856881e-01  -7.682067e-01  -2.856881e-01  -2.043367e-01   3.471130e-01
  8.930800e+00  -1.954533e-01   3.532739e-01  -7.751406e-01  -2.654031e-01  -7.751406e-01  -2.654031e-01  -1.954533e-01   3.532739e-01
  8.940700e+00  -1.863123e-01   3.592103e-01  -7.815536e-01  -2.449342e-01  -7.815536e-01  -2.449342e-01  -1.863123e-01   3.592103e-01
  8.950600e+00  -1.769196e-01   3.649118e-01  -7.874403e-01  -2.242938e-01  -7.874403e-01  -2.242938e-01  -1.769196e-01   3.649118e-01
  8.960500e+00  -1.672814e-01   3.703685e-01  -7.927957e-01  -2.034940e-01  -7.927957e-01  -2.034940e-01  -1.672814e-01   3.703685e-01
  8.970400e+00  -1.574044e-01   3.755704e-01  -7.976149e-01  -1.825476e-01  -7.976149e-01  -1.825476e-01  -1.574044e-01   3.755704e-01
  8.980300e+00  -1.472957e-01   3.805079e-01  -8.018933e-01  -1.614671e-01  -8.018933e-01  -1.614671e-01  -1.472957e-01   3.805079e-01
  8.990200e+00  -1.369629e-01   3.851714e-01  -8.056265e-01  -1.402654e-01  -8.056265e-01  -1.402654e-01  -1.369629e-01   3.851714e-01
  9.000100e+00  -1.264138e-01   3.895519e-01  -8.088103e-01  -1.189554e-01  -8.088103e-01  -1.189554e-01  -1.264138e-01   3.895519e-01
  9.010000e+00  -1.156566e-01   3.936405e-01  -8.114406e-01  -9.755030e-02  -8.114406e-01  -9.755030e-02  -1.156566e-01   3.936405e-01
  9.019900e+00  -1.047000e-01   3.974284e-01  -8.135139e-01  -7.606328e-02  -8.135139e-01  -7.606328e-02  -1.047000e-01   3.974284e-01
  9.029800e+00  -9.355300e-02   4.009073e-01  -8.150265e-01  -5.450778e-02  -8.150265e-01  -5.450778e-02  -9.355300e-02   4.009073e-01
  9.039700e+00  -8.222482e-02   4.040693e-01  -8.159753e-01  -3.289737e-02  -8.159753e-01  -3.289737e-02  -8.222482e-02   4.040693e-01
  9.049600e+00  -7.072510e-02   4.069067e-01  -8.163571e-01  -1.124578e-02  -8.163571e-01  -1.124578e-02  -7.072510e-02   4.069067e-01
  9.059500e+00  -5.906378e-02   4.094120e-01  -8.161693e-01   1.043313e-02  -8.161693e-01   1.043313e-02  -5.906378e-02   4.094120e-01
  9.069400e+00  -4.725106e-02   4.115785e-01  -8.154093e-01   3.212531e-02  -8.154093e-01   3.212531e-02  -4.725106e-02   4.115785e-01
  9.079300e+00  -3.529742e-02   4.133994e-01  -8.140748e-01   5.381657e-02  -8.140748e-01   5.381657e-02  -3.529742e-02   4.133994e-01
  9.089200e+00  -2.321359e-02   4.148685e-01  -8.121640e-01   7.549253e-02  -8.121640e-01   7.549253e-02  -2.321359e-02   4.148685e-01
  9.099100e+00  -1.101052e-02   4.159800e-01  -8.096750e-01   9.713867e-02  -8.096750e-01   9.713867e-02  -1.101052e-02   4.159800e-01
  9.109000e+00   1.300610e-03   4.167285e-01  -8.066064e-01   1.187403e-01  -8.066064e-01   1.187403e-01   1.300610e-03   4.167285e-01
  9.118900e+00   1.370844e-02   4.171088e-01  -8.029572e-01   1.402825e-01  -8.029572e-01   1.402825e-01   1.370844e-02   4.171088e-01
  9.128800e+00   2.620143e-02   4.171165e-01  -7.987264e-01   1.617503e-01  -7.987264e-01   1.617503e-01   2.620143e-02   4.171165e-01
  9.138700e+00   3.876789e-02   4.167472e-01  -7.939136e-01   1.831285e-01  -7.939136e-01   1.831285e-01   3.876789e-02   4.167472e-01
  9.148600e+00   5.139599e-02   4.159972e-01  -7.885186e-01   2.044017e-01  -7.885186e-01   2.044017e-01   5.139599e-02   4.159972e-01
  9.158500e+00   6.407378e-02   4.148631e-01  -7.825415e-01   2.255542e-01  -7.825415e-01   2.255542e-01   6.407378e-02   4.148631e-01
  9.168400e+00   7.678924e-02   4.133418e-01  -7.759828e-01   2.465705e-01  -7.759828e-01   2.465705e-01   7.678924e-02   4.133418e-01
  9.178300e+00   8.953023e-02   4.114310e-01  -7.688435e-01   2.674345e-01  -7.688435e-01   2.674345e-01   8.953023e-02   4.114310e-01
  9.188200e+00   1.022846e-01   4.091283e-01  -7.611247e-01   2.881303e-01  -7.611247e-01   2.881303e-01   1.022846e-01   4.091283e-01
  9.198100e+00   1.150401e-01   4.064320e-01  -7.528282e-01   3.086416e-01  -7.528282e-01   3.086416e-01   1.150401e-01   4.064320e-01
  9.208000e+00   1.277845e-01   4.033409e-01  -7.439559e-01   3.289519e-01  -7.439559e-01   3.289519e-01   1.277845e-01   4.033409e-01
  9.217900e+00   1.405055e-01   3.998540e-01  -7.345105e-01   3.490448e-01  -7.345105e-01   3.490448e-01   1.405055e-01   3.998540e-01
  9.227800e+00   1.531909e-01   3.959707e-01  -7.244948e-01   3.689035e-01  -7.244948e-01   3.689035e-01   1.531909e-01   3.959707e-01
  9.237700e+00   1.658285e-01   3.916908e-01  -7.139123e-01   3.885112e-01  -7.139123e-01   3.885112e-01   1.658285e-01   3.916908e-01
  9.247600e+00   1.784061e-01   3.870146e-01  -7.027668e-01   4.078509e-01  -7.027668e-01   4.078509e-01   1.784061e-01   3.870146e-01
  9.257500e+00   1.909115e-01   3.819427e-01  -6.910629e-01   4.269055e-01  -6.910629e-01   4.269055e-01   1.909115e-01   3.819427e-01
  9.267400e+00   2.033326e-01   3.764759e-01  -6.788053e-01   4.456577e-01  -6.788053e-01   4.456577e-01   2.033326e-01   3.764759e-01
  9.277300e+00   2.156574e-01   3.706155e-01  -6.659997e-01   4.640903e-01  -6.659997e-01   4.640903e-01   2.156574e-01   3.706155e-01
  9.287200e+00   2.278739e-01   3.643631e-01  -6.526520e-01   4.821859e-01  -6.526520e-01   4.821859e-01   2.278739e-01   3.643631e-01
  9.297100e+00   2.399704e-01   3.577207e-01  -6.387689e-01   4.999270e-01  -6.387689e-01   4.999270e-01   2.399704e-01   3.577207e-01
  9.307000e+00   2.519349e-01   3.506905e-01  -6.243576e-01   5.172960e-01  -6.243576e-01   5.172960e-01   2.519349e-01   3.506905e-01
  9.316900e+00   2.637558e-01   3.432750e-01  -6.094259e-01   5.342755e-01  -6.094259e-01   5.342755e-01   2.637558e-01   3.432750e-01
  9.326800e+00   2.754216e-01   3.354771e-01  -5.939824e-01   5.508478e-01  -5.939824e-01   5.508478e-01   2.754216e-01   3.354771e-01
  9.336700e+00   2.869206e-01   3.272999e-01  -5.780362e-01   5.669956e-01  -5.780362e-01   5.669956e-01   2.869206e-01   3.272999e-01
  9.346600e+00   2.982415e-01   3.187467e-01  -5.615971e-01   5.827012e-01  -5.615971e-01   5.827012e-01   2.982415e-01   3.187467e-01
  9.356500e+00   3.093731e-01   3.098212e-01  -5.446757e-01   5.979472e-01  -5.446757e-01   5.979472e-01   3.093731e-01   3.098212e-01
  9.366400e+00   3.203040e-01   3.005274e-01  -5.272830e-01   6.127164e-01  -5.272830e-01   6.127164e-01   3.203040e-01   3.005274e-01
  9.376300e+00   3.310233e-01   2.908693e-01  -5.094311e-01   6.269916e-01  -5.094311e-01   6.269916e-01   3.310233e-01   2.908693e-01
  9.386200e+00   3.415198e-01   2.808514e-01  -4.911327e-01   6.407558e-01  -4.911327e-01   6.407558e-01   3.415198e-01   2.808514e-01
  9.396100e+00   3.517827e-01   2.704783e-01  -4.724011e-01   6.539920e-01  -4.724011e-01   6.539920e-01   3.517827e-01   2.704783e-01
  9.406000e+00   3.618010e-01   2.597549e-01  -4.532505e-01   6.666838e-01  -4.532505e-01   6.666838e-01   3.618010e-01   2.597549e-01
  9.415900e+00   3.715641e-01   2.486862e-01  -4.336958e-01   6.788149e-01  -4.336958e-01   6.788149e-01   3.715641e-01   2.486862e-01
  9.425800e+00   3.810612e-01   2.372777e-01  -4.137526e-01   6.903691e-01  -4.137526e-01   6.903691e-01   3.810612e-01   2.372777e-01
  9.435700e+00   3.902818e-01   2.255348e-01  -3.934375e-01   7.013310e-01  -3.934375e-01   7.013310e-01   3.902818e-01   2.255348e-01
  9.445600e+00   3.992152e-01   2.134633e-01  -3.727676e-01   7.116851e-01  -3.727676e-01   7.116851e-01   3.992152e-01   2.134633e-01
  9.455500e+00   4.078509e-01   2.010694e-01  -3.517609e-01   7.214168e-01  -3.517609e-01   7.214168e-01   4.078509e-01   2.010694e-01
  9.465400e+00   4.161786e-01   1.883592e-01  -3.304361e-01   7.305116e-01  -3.304361e-01   7.305116e-01   4.161786e-01   1.883592e-01
  9.475300e+00   4.241877e-01   1.753392e-01  -3.088128e-01   7.389558e-01  -3.088128e-01   7.389558e-01   4.241877e-01   1.753392e-01
  9.485200e+00   4.318680e-01   1.620162e-01  -2.869111e-01   7.467360e-01  -2.869111e-01   7.467360e-01   4.318680e-01   1.620162e-01
  9.495100e+00   4.392091e-01   1.483973e-01  -2.647520e-01   7.538396e-01  -2.647520e-01   7.538396e-01   4.392091e-01   1.483973e-01
  9.505000e+00   4.462008e-01   1.344897e-01  -2.423573e-01   7.602547e-01  -2.423573e-01   7.602547e-01   4.462008e-01   1.344897e-01
  9.514900e+00   4.528327e-01   1.203009e-01  -2.197492e-01   7.659699e-01  -2.197492e-01   7.659699e-01   4.528327e-01   1.203009e-01
  9.524800e+00   4.590948e-01   1.058390e-01  -1.969510e-01   7.709748e-01  -1.969510e-01   7.709748e-01   4.590948e-01   1.058390e-01
  9.534700e+00   4.649768e-01   9.111199e-02  -1.739863e-01   7.752595e-01  -1.739863e-01   7.752595e-01   4.649768e-01   9.111199e-02
  9.544600e+00   4.704686e-01   7.612841e-02  -1.508794e-01   7.788152e-01  -1.508794e-01   7.788152e-01   4.704686e-01   7.612841e-02
  9.554500e+00   4.755602e-01   6.089710e-02  -1.276553e-01   7.816338e-01  -1.276553e-01   7.816338e-01   4.755602e-01   6.089710e-02
  9.564400e+00   4.802416e-01   4.542724e-02  -1.043396e-01   7.837083e-01  -1.043396e-01   7.837083e-01   4.802416e-01   4.542724e-02
  9.574300e+00   4.845027e-01   2.972839e-02  -8.095834e-02   7.850325e-01  -8.095834e-02   7.850325e-01   4.845027e-01   2.972839e-02
  9.584200e+00   4.883338e-01   1.381047e-02  -5.753797e-02   7.856013e-01  -5.753797e-02   7.856013e-01   4.883338e-01   1.381047e-02
  9.594100e+00   4.917251e-01  -2.316191e-03  -3.410554e-02   7.854106e-01  -3.410554e-02   7.854106e-01   4.917251e-01  -2.316191e-03
  9.604000e+00   4.946668e-01  -1.864084e-02  -1.068842e-02   7.844575e-01  -1.068842e-02   7.844575e-01   4.946668e-01  -1.864084e-02
  9.613900e+00   4.971494e-01  -3.515230e-02   1.268564e-02   7.827399e-01   1.268564e-02   7.827399e-01   4.971494e-01  -3.515230e-02
  9.623800e+00   4.991635e-01  -5.183897e-02   3.598859e-02   7.802573e-01   3.598859e-02   7.802573e-01   4.991635e-01  -5.183897e-02
  9.633700e+00   5.006999e-01  -6.868875e-02   5.919214e-02   7.770099e-01   5.919214e-02   7.770099e-01   5.006999e-01  -6.868875e-02
  9.643600e+00   5.017495e-01  -8.568913e-02   8.226782e-02   7.729996e-01   8.226782e-02   7.729996e-01   5.017495e-01  -8.568913e-02
  9.653500e+00   5.023033e-01  -1.028271e-01   1.051870e-01   7.682292e-01   1.051870e-01   7.682292e-01   5.023033e-01  -1.028271e-01
  9.663400e+00   5.023529e-01  -1.200890e-01   1.279210e-01   7.627028e-01   1.279210e-01   7.627028e-01   5.023529e-01  -1.200890e-01
  9.673300e+00   5.018898e-01  -1.374610e-01   1.504411e-01   7.564257e-01   1.504411e-01   7.564257e-01   5.018898e-01  -1.374610e-01
  9.683200e+00   5.009059e-01  -1.549286e-01   1.727187e-01   7.494048e-01   1.727187e-01   7.494048e-01   5.009059e-01  -1.549286e-01
  9.693100e+00   4.993936e-01  -1.724766e-01   1.947253e-01   7.416478e-01   1.947253e-01   7.416478e-01   4.993936e-01  -1.724766e-01
  9.703000e+00   4.973455e-01  -1.900896e-01   2.164326e-01   7.331642e-01   2.164326e-01   7.331642e-01   4.973455e-01  -1.900896e-01
  9.712900e+00   4.947547e-01  -2.077515e-01   2.378125e-01   7.239644e-01   2.378125e-01   7.239644e-01   4.947547e-01  -2.077515e-01
  9.722800e+00   4.916144e-01  -2.254459e-01   2.588373e-01   7.140603e-01   2.588373e-01   7.140603e-01   4.916144e-01  -2.254459e-01
  9.732700e+00   4.879189e-01  -2.431556e-01   2.794797e-01   7.034650e-01   2.794797e-01   7.034650e-01   4.879189e-01  -2.431556e-01
  9.742600e+00   4.836624e-01  -2.608631e-01   2.997128e-01   6.921930e-01   2.997128e-01   6.921930e-01   4.836624e-01  -2.608631e-01
  9.752500e+00   4.788399e-01  -2.785505e-01   3.195104e-01   6.802599e-01   3.195104e-01   6.802599e-01   4.788399e-01  -2.785505e-01
  9.762400e+00   4.734471e-01  -2.961993e-01   3.388467e-01   6.676826e-01   3.388467e-01   6.676826e-01   4.734471e-01  -2.961993e-01
  9.772300e+00   4.674802e-01  -3.137906e-01   3.576969e-01   6.544792e-01   3.576969e-01   6.544792e-01   4.674802e-01  -3.137906e-01
  9.782200e+00   4.609359e-01  -3.313051e-01   3.760366e-01   6.406690e-01   3.760366e-01   6.406690e-01   4.609359e-01  -3.313051e-01
  9.792100e+00   4.538118e-01  -3.487232e-01   3.938425e-01   6.262725e-01   3.938425e-01   6.262725e-01   4.538118e-01  -3.487232e-01
  9.802000e+00   4.461063e-01  -3.660246e-01   4.110920e-01   6.113111e-01   4.110920e-01   6.113111e-01   4.461063e-01  -3.660246e-01
  9.811900e+00   4.378183e-01  -3.831891e-01   4.277635e-01   5.958076e-01   4.277635e-01   5.958076e-01   4.378183e-01  -3.831891e-01
  9.821800e+00   4.289476e-01  -4.001960e-01   4.438366e-01   5.797856e-01   4.438366e-01   5.797856e-01   4.289476e-01  -4.001960e-01
  9.831700e+00   4.194950e-01  -4.170243e-01   4.592917e-01   5.632695e-01   4.592917e-01   5.632695e-01   4.194950e-01  -4.170243e-01
  9.841600e+00   4.094618e-01  -4.336528e-01   4.741105e-01   5.462850e-01   4.741105e-01   5.462850e-01   4.094618e-01  -4.336528e-01
  9.851500e+00   3.988504e-01  -4.500602e-01   4.882758e-01   5.288583e-01   4.882758e-01   5.288583e-01   3.988504e-01  -4.500602e-01
  9.861400e+00   3.876641e-01  -4.662250e-01   5.017716e-01   5.110166e-01   5.017716e-01   5.110166e-01   3.876641e-01  -4.662250e-01
  9.871300e+00   3.759070e-01  -4.821256e-01   5.145833e-01   4.927878e-01   5.145833e-01   4.927878e-01   3.759070e-01  -4.821256e-01
  9.881200e+00   3.635843e-01  -4.977404e-01   5.266975e-01   4.742002e-01   5.266975e-01   4.742002e-01   3.635843e-01  -4.977404e-01
  9.891100e+00   3.507019e-01  -5.130478e-01   5.381021e-01   4.552830e-01   5.381021e-01   4.552830e-01   3.507019e-01  -5.130478e-01
  9.901000e+00   3.372669e-01  -5.280263e-01   5.487866e-01   4.360658e-01   5.487866e-01   4.360658e-01   3.372669e-01  -5.280263e-01
  9.910900e+00   3.232871e-01  -5.426544e-01   5.587416e-01   4.165784e-01   5.587416e-01   4.165784e-01   3.232871e-01  -5.426544e-01
  9.920800e+00   3.087714e-01  -5.569108e-01   5.679593e-01   3.968513e-01   5.679593e-01   3.968513e-01   3.087714e-01  -5.569108e-01
  9.930700e+00   2.937298e-01  -5.707745e-01   5.764333e-01   3.769150e-01   5.764333e-01   3.769150e-01   2.937298e-01  -5.707745e-01
  9.940600e+00   2.781728e-01  -5.842247e-01   5.841587e-01   3.568002e-01   5.841587e-01   3.568002e-01   2.781728e-01  -5.842247e-01
  9.950500e+00   2.621124e-01  -5.972410e-01   5.911319e-01   3.365380e-01   5.911319e-01   3.365380e-01   2.621124e-01  -5.972410e-01
  9.960400e+00   2.455611e-01  -6.098033e-01   5.973510e-01   3.161591e-01   5.973510e-01   3.161591e-01   2.455611e-01  -6.098033e-01
  9.970300e+00   2.285325e-01  -6.218919e-01   6.028152e-01   2.956945e-01   6.028152e-01   2.956945e-01   2.285325e-01  -6.218919e-01
  9.980200e+00   2.110411e-01  -6.334877e-01   6.075254e-01   2.751748e-01   6.075254e-01   2.751748e-01   2.110411e-01  -6.334877e-01
  9.990100e+00   1.931021e-01  -6.445720e-01   6.114838e-01   2.546305e-01   6.114838e-01   2.546305e-01   1.931021e-01  -6.445720e-01
  1.000000e+01   1.747316e-01  -6.551267e-01   6.146941e-01   2.340920e-01   6.146941e-01   2.340920e-01   1.747316e-01  -6.551267e-01
